## Task Description

In this task, you are required to determine the optimal material distribution within a 2D design domain to minimize structural compliance under a given set of physical constraints. The domain is a fixed-size grid of **64 × 64 elements**. Each design must satisfy the specified boundary conditions, load configurations, and a volume fraction constraint.

## Input

The input consists of a 5-channel tensor, where each channel is a **64 × 64 NumPy array (.npy format)** representing:

- **Channel 1**: volume fraction, prescribed uniformly or non-uniformly across the grid.  
- **Channel 2**: von Mises stress under the given loading and boundary conditions.  
- **Channel 3**: Strain energy distribution under the same conditions.  
- **Channel 4**: x-direction load magnitude at each node (0 if none). 
- **Channel 5**: y-direction load magnitude at each node (0 if none).  

The inputs are specified in five 64x64 numpy array:
- channel 1: A 64x64 matrix with each element equal 0.48
- channel 2:[[3.02378885e-06 4.47539433e-06 7.50072817e-06 1.20186311e-05
  1.80109097e-05 2.54543330e-05 3.43215513e-05 4.45822821e-05
  5.62047910e-05 6.91577125e-05 8.34122703e-05 9.89449821e-05
  1.15740968e-04 1.33798037e-04 1.53131780e-04 1.73782043e-04
  1.95821249e-04 2.19365323e-04 2.44588274e-04 2.71741967e-04
  3.01183312e-04 3.33411876e-04 3.69121785e-04 4.09269653e-04
  4.55158574e-04 5.08461270e-04 5.71189253e-04 6.43753731e-04
  7.24444883e-04 8.61603091e-04 7.41751328e-03 1.26088212e-02
  2.28558406e-02 1.90377994e-02 2.29648198e-03 5.74503268e-04
  1.70806693e-04 5.59472407e-05 2.40936179e-05 2.09785195e-05
  2.83383866e-05 3.92710245e-05 5.09601691e-05 6.22304338e-05
  7.26109646e-05 8.19471512e-05 9.02286714e-05 9.75098238e-05
  1.03871446e-04 1.09402429e-04 1.14190775e-04 1.18319405e-04
  1.21864365e-04 1.24894237e-04 1.27470146e-04 1.29646034e-04
  1.31469059e-04 1.32980001e-04 1.34213660e-04 1.35199214e-04
  1.35960520e-04 1.36516369e-04 1.36880691e-04 1.35381261e-04]
 [9.99441870e-06 1.12235038e-05 1.38634008e-05 1.78071154e-05
  2.30355207e-05 2.95237637e-05 3.72418210e-05 4.61551870e-05
  5.62256893e-05 6.74124195e-05 7.96727639e-05 9.29635022e-05
  1.07241926e-04 1.22466889e-04 1.38599632e-04 1.55604117e-04
  1.73446380e-04 1.92092012e-04 2.11500144e-04 2.31610822e-04
  2.52319841e-04 2.73429263e-04 2.94549893e-04 3.14907379e-04
  3.32953288e-04 3.45612379e-04 3.47097711e-04 3.29221765e-04
  3.12111234e-04 6.08510000e-04 3.59270247e-03 5.18087526e-03
  1.32168194e-02 1.43017050e-02 4.15618859e-03 1.41871086e-03
  5.49137011e-04 2.31669836e-04 1.07999778e-04 5.93808033e-05
  4.26299521e-05 4.00876239e-05 4.39482247e-05 5.05486821e-05
  5.81038451e-05 6.57295301e-05 7.29931730e-05 7.96957838e-05
  8.57614630e-05 9.11794279e-05 9.59727398e-05 1.00181083e-04
  1.03851151e-04 1.07031244e-04 1.09768251e-04 1.12105984e-04
  1.14084301e-04 1.15738676e-04 1.17100023e-04 1.18194668e-04
  1.19044384e-04 1.19666461e-04 1.20073785e-04 1.20337789e-04]
 [2.35636661e-05 2.45563331e-05 2.67028106e-05 2.99060067e-05
  3.41460670e-05 3.93967071e-05 4.56253381e-05 5.27931715e-05
  6.08552585e-05 6.97604009e-05 7.94508362e-05 8.98615592e-05
  1.00919068e-04 1.12539220e-04 1.24623702e-04 1.37054362e-04
  1.49684198e-04 1.62323090e-04 1.74715204e-04 1.86503157e-04
  1.97171221e-04 2.05956267e-04 2.11713348e-04 2.12736162e-04
  2.06620301e-04 1.90685736e-04 1.65312082e-04 1.51134218e-04
  2.63334631e-04 9.20941119e-04 2.44746839e-03 3.68516374e-03
  5.18872672e-03 6.36497638e-03 4.67760144e-03 2.25661676e-03
  1.08103309e-03 5.35911749e-04 2.79099804e-04 1.54861824e-04
  9.41517471e-05 6.52404603e-05 5.27898861e-05 4.90300096e-05
  4.98626330e-05 5.30562941e-05 5.73679019e-05 6.20960998e-05
  6.68450510e-05 7.13951408e-05 7.56300484e-05 7.94945337e-05
  8.29694529e-05 8.60566908e-05 8.87699298e-05 9.11289252e-05
  9.31559195e-05 9.48733840e-05 9.63025915e-05 9.74627149e-05
  9.83702607e-05 9.90387162e-05 9.94783327e-05 9.97591586e-05]
 [4.16295394e-05 4.23891394e-05 4.40496624e-05 4.65237958e-05
  4.97912972e-05 5.38249610e-05 5.85903740e-05 6.40455261e-05
  7.01402094e-05 7.68151090e-05 8.40004479e-05 9.16139943e-05
  9.95581552e-05 1.07715765e-04 1.15944019e-04 1.24065760e-04
  1.31857062e-04 1.39029690e-04 1.45206841e-04 1.49891012e-04
  1.52425636e-04 1.51962080e-04 1.47475242e-04 1.37966593e-04
  1.23280995e-04 1.06798444e-04 1.03599745e-04 1.62552795e-04
  4.06523400e-04 9.86394132e-04 1.78374670e-03 2.44852323e-03
  3.09814326e-03 3.61013837e-03 3.30263275e-03 2.31434577e-03
  1.38602652e-03 8.04681374e-04 4.70304174e-04 2.82003698e-04
  1.75940806e-04 1.16167394e-04 8.28164575e-05 6.47941377e-05
  5.57792162e-05 5.20891459e-05 5.15337521e-05 5.27874077e-05
  5.50369816e-05 5.77795579e-05 6.07034385e-05 6.36165751e-05
  6.64026399e-05 6.89935579e-05 7.13520420e-05 7.34603211e-05
  7.53127692e-05 7.69110295e-05 7.82607593e-05 7.93694404e-05
  8.02449011e-05 8.08943190e-05 8.13235561e-05 8.15972663e-05]
 [6.28043506e-05 6.33317118e-05 6.45084511e-05 6.62570029e-05
  6.85570438e-05 7.13809340e-05 7.46931813e-05 7.84496781e-05
  8.25966380e-05 8.70691320e-05 9.17890915e-05 9.66626042e-05
  1.01576278e-04 1.06392396e-04 1.10942558e-04 1.15019509e-04
  1.18367091e-04 1.20668876e-04 1.21537814e-04 1.20513575e-04
  1.17084793e-04 1.10778431e-04 1.01417249e-04 8.97817565e-05
  7.92062724e-05 7.91830708e-05 1.12506768e-04 2.24775284e-04
  4.76587523e-04 8.80236310e-04 1.32859982e-03 1.70887193e-03
  2.06440694e-03 2.35597015e-03 2.33335753e-03 1.93868583e-03
  1.40315628e-03 9.40361914e-04 6.13516650e-04 3.99514561e-04
  2.63633738e-04 1.78364548e-04 1.25188815e-04 9.22934977e-05
  7.22593285e-05 6.04225455e-05 5.38282608e-05 5.05846143e-05
  4.94673385e-05 4.96765694e-05 5.06857439e-05 5.21464951e-05
  5.38279511e-05 5.55774453e-05 5.72947348e-05 5.89148629e-05
  6.03966303e-05 6.17147546e-05 6.28544892e-05 6.38079028e-05
  6.45712985e-05 6.51434252e-05 6.55242540e-05 6.57699295e-05]
 [8.59151283e-05 8.62095004e-05 8.69013337e-05 8.79229117e-05
  8.92542314e-05 9.08678555e-05 9.27281912e-05 9.47905077e-05
  9.69996367e-05 9.92882860e-05 1.01574885e-04 1.03760883e-04
  1.05727442e-04 1.07331535e-04 1.08401644e-04 1.08733659e-04
  1.08088435e-04 1.06194270e-04 1.02761238e-04 9.75218274e-05
  9.03273087e-05 8.13586461e-05 7.15654221e-05 6.35363223e-05
  6.31073670e-05 8.19320611e-05 1.40196660e-04 2.64734202e-04
  4.73105995e-04 7.44987039e-04 1.02115664e-03 1.26404811e-03
  1.48750640e-03 1.66928411e-03 1.71064384e-03 1.55490925e-03
  1.26543758e-03 9.51567463e-04 6.83433932e-04 4.80834304e-04
  3.36772910e-04 2.37459280e-04 1.70093164e-04 1.24843620e-04
  9.47045888e-05 7.48415115e-05 6.19596809e-05 5.38197404e-05
  4.88961722e-05 4.61450322e-05 4.48481892e-05 4.45091888e-05
  4.47834349e-05 4.54310914e-05 4.62850648e-05 4.72290501e-05
  4.81823462e-05 4.90892683e-05 4.99117104e-05 5.06238947e-05
  5.12086554e-05 5.16548189e-05 5.19553835e-05 5.21558529e-05]
 [1.09995072e-04 1.10055300e-04 1.10260289e-04 1.10552438e-04
  1.10912671e-04 1.11314695e-04 1.11724215e-04 1.12097926e-04
  1.12382233e-04 1.12511723e-04 1.12407371e-04 1.11974584e-04
  1.11101250e-04 1.09656207e-04 1.07488953e-04 1.04432174e-04
  1.00310074e-04 9.49580202e-05 8.82635871e-05 8.02469800e-05
  7.12121341e-05 6.20199264e-05 5.45591786e-05 5.24983455e-05
  6.23136825e-05 9.42061151e-05 1.61499614e-04 2.75859632e-04
  4.37162452e-04 6.25517604e-04 8.11038178e-04 9.78734036e-04
  1.13128329e-03 1.25484628e-03 1.30460798e-03 1.24561986e-03
  1.09128298e-03 8.90542783e-04 6.91177899e-04 5.20106518e-04
  3.85148286e-04 2.83709608e-04 2.09598063e-04 1.56373036e-04
  1.18577749e-04 9.19755466e-05 7.34150254e-05 6.06020212e-05
  5.18834588e-05 4.60729358e-05 4.23194166e-05 4.00116502e-05
  3.87097191e-05 3.80963535e-05 3.79423532e-05 3.80819893e-05
  3.83954437e-05 3.87962229e-05 3.92221022e-05 3.96285939e-05
  3.99842387e-05 4.02672316e-05 4.04630454e-05 4.06054038e-05]
 [1.34271035e-04 1.34096754e-04 1.33814665e-04 1.33377704e-04
  1.32768609e-04 1.31963557e-04 1.30931467e-04 1.29633156e-04
  1.28020365e-04 1.26034740e-04 1.23606905e-04 1.20655871e-04
  1.17089256e-04 1.12805095e-04 1.07696630e-04 1.01662410e-04
  9.46256145e-05 8.65690750e-05 7.75963688e-05 6.80350069e-05
  5.86045481e-05 5.06772072e-05 4.66501910e-05 5.03992811e-05
  6.76357157e-05 1.05676268e-04 1.71761945e-04 2.69275748e-04
  3.93213421e-04 5.29590167e-04 6.62797101e-04 7.85258425e-04
  8.95578332e-04 9.84539893e-04 1.02972329e-03 1.01077905e-03
  9.27723408e-04 8.01463281e-04 6.59841821e-04 5.24784817e-04
  4.08053901e-04 3.13196190e-04 2.39068301e-04 1.82580011e-04
  1.40244777e-04 1.08883844e-04 8.58599853e-05 6.90907827e-05
  5.69766766e-05 4.83080573e-05 4.21780848e-05 3.79099583e-05
  3.49996021e-05 3.30718554e-05 3.18475407e-05 3.11189287e-05
  3.07315406e-05 3.05706739e-05 3.05514382e-05 3.06113953e-05
  3.07051458e-05 3.08003835e-05 3.08750760e-05 3.09509514e-05]
 [1.58147346e-04 1.57740032e-04 1.56974536e-04 1.55814875e-04
  1.54246772e-04 1.52250584e-04 1.49800838e-04 1.46865737e-04
  1.43406736e-04 1.39378345e-04 1.34728420e-04 1.29399370e-04
  1.23330952e-04 1.16465743e-04 1.08758987e-04 1.00195450e-04
  9.08172600e-05 8.07685963e-05 7.03652855e-05 6.01993668e-05
  5.12882653e-05 4.52704134e-05 4.46234565e-05 5.28207475e-05
  7.42324562e-05 1.13451720e-04 1.73751313e-04 2.54883967e-04
  3.51542736e-04 4.54522988e-04 5.54964970e-04 6.48023026e-04
  7.31091113e-04 7.97809541e-04 8.35949162e-04 8.33674732e-04
  7.88208403e-04 7.08282621e-04 6.09261305e-04 5.06293024e-04
  4.10148520e-04 3.26488793e-04 2.57054527e-04 2.01247227e-04
  1.57373218e-04 1.23413697e-04 9.74259140e-05 7.77137701e-05
  6.28731828e-05 5.17778260e-05 4.35415014e-05 3.74753306e-05
  3.30478827e-05 2.98511722e-05 2.75729917e-05 2.59750066e-05
  2.48757001e-05 2.41372357e-05 2.36554154e-05 2.33520562e-05
  2.31692524e-05 2.30651129e-05 2.30106677e-05 2.30162206e-05]
 [1.81186691e-04 1.80550446e-04 1.79310760e-04 1.77443324e-04
  1.74938244e-04 1.71782062e-04 1.67957638e-04 1.63444162e-04
  1.58217453e-04 1.52250780e-04 1.45516556e-04 1.37989466e-04
  1.29651801e-04 1.20502230e-04 1.10569689e-04 9.99348328e-05
  8.87622853e-05 7.73477602e-05 6.61844024e-05 5.60513640e-05
  4.81223529e-05 4.40786948e-05 4.61849560e-05 5.72423592e-05
  8.02878702e-05 1.17904624e-04 1.71151884e-04 2.38486452e-04
  3.15468961e-04 3.95958950e-04 4.74376263e-04 5.47124691e-04
  6.11476478e-04 6.62921642e-04 6.94316854e-04 6.98639363e-04
  6.73188383e-04 6.21562592e-04 5.52134853e-04 4.74702914e-04
  3.97628522e-04 3.26534558e-04 2.64336409e-04 2.11918727e-04
  1.68909839e-04 1.34298576e-04 1.06841087e-04 8.52939849e-05
  6.85292881e-05 5.55781770e-05 4.56361138e-05 3.80494056e-05
  3.22946185e-05 2.79568140e-05 2.47094243e-05 2.22968566e-05
  2.05200366e-05 1.92246944e-05 1.82920387e-05 1.76314406e-05
  1.71747750e-05 1.68721239e-05 1.66886041e-05 1.66242740e-05]
 [2.03089063e-04 2.02231073e-04 2.00532911e-04 1.97982487e-04
  1.94575815e-04 1.90307763e-04 1.85172354e-04 1.79163384e-04
  1.72275523e-04 1.64506211e-04 1.55858735e-04 1.46347097e-04
  1.36003461e-04 1.24889299e-04 1.13111688e-04 1.00846564e-04
  8.83709569e-05 7.61060354e-05 6.46715603e-05 5.49490602e-05
  4.81441114e-05 4.58257111e-05 4.99023409e-05 6.24746443e-05
  8.55003601e-05 1.20251206e-04 1.66667422e-04 2.22902527e-04
  2.85450720e-04 3.50024362e-04 4.12751797e-04 4.70766817e-04
  5.21602116e-04 5.61992327e-04 5.87530700e-04 5.93954358e-04
  5.79231709e-04 5.44845081e-04 4.95420483e-04 4.37154258e-04
  3.76083179e-04 3.16951760e-04 2.62836772e-04 2.15304762e-04
  1.74801109e-04 1.41057963e-04 1.13422356e-04 9.10826957e-05
  7.32077811e-05 5.90224530e-05 4.78420844e-05 3.90825875e-05
  3.22571340e-05 2.69665513e-05 2.28874457e-05 1.97602481e-05
  1.73782581e-05 1.55781281e-05 1.42318773e-05 1.32403657e-05
  1.25280795e-05 1.20390676e-05 1.17338811e-05 1.16039171e-05]
 [2.23669850e-04 2.22600517e-04 2.20466338e-04 2.17267845e-04
  2.13008483e-04 2.07693524e-04 2.01330841e-04 1.93932130e-04
  1.85514816e-04 1.76104924e-04 1.65741338e-04 1.54481992e-04
  1.42412698e-04 1.29659476e-04 1.16405392e-04 1.02912898e-04
  8.95523604e-05 7.68365688e-05 6.54589763e-05 5.63296798e-05
  5.05969828e-05 4.96338336e-05 5.49595265e-05 6.80640100e-05
  9.01169365e-05 1.21590227e-04 1.61902355e-04 2.09267515e-04
  2.60918969e-04 3.13697431e-04 3.64707795e-04 4.11599097e-04
  4.52265905e-04 4.84305229e-04 5.04882377e-04 5.11358258e-04
  5.02348987e-04 4.78493636e-04 4.42439933e-04 3.98118892e-04
  3.49756504e-04 3.01062452e-04 2.54798911e-04 2.12703595e-04
  1.75633669e-04 1.43796122e-04 1.16975898e-04 9.47205850e-05
  7.64721847e-05 6.16521512e-05 4.97110031e-05 4.01535814e-05
  3.25488159e-05 2.65303556e-05 2.17922995e-05 1.80826907e-05
  1.51963564e-05 1.29679726e-05 1.12658015e-05 9.98628917e-06
  9.04957102e-06 8.39585888e-06 7.98265304e-06 7.79448077e-06]
 [2.42838116e-04 2.41570887e-04 2.39029523e-04 2.35227343e-04
  2.30176597e-04 2.23894805e-04 2.16405972e-04 2.07742382e-04
  1.97947186e-04 1.87078053e-04 1.75212259e-04 1.62453641e-04
  1.48941949e-04 1.34865118e-04 1.20474950e-04 1.06106382e-04
  9.21998951e-05 7.93253698e-05 6.82035784e-05 5.97182682e-05
  5.49075451e-05 5.49189185e-05 6.09104926e-05 7.38861053e-05
  9.44707021e-05 1.22666640e-04 1.57672915e-04 1.97869515e-04
  2.41029601e-04 2.84708897e-04 3.26629593e-04 3.64842746e-04
  3.97599626e-04 4.23109720e-04 4.39492688e-04 4.45093658e-04
  4.39028010e-04 4.21621758e-04 3.94478291e-04 3.60144345e-04
  3.21558254e-04 2.81515996e-04 2.42309860e-04 2.05576963e-04
  1.72313560e-04 1.42983678e-04 1.17660057e-04 9.61581405e-05
  7.81449159e-05 6.32184245e-05 5.09609969e-05 4.09719026e-05
  3.28852362e-05 2.63779303e-05 2.11715873e-05 1.70307307e-05
  1.37592108e-05 1.11958665e-05 9.21010896e-06 7.69780902e-06
  6.57768561e-06 5.78828675e-06 5.28559147e-06 5.04907683e-06]
 [2.60575971e-04 2.59126934e-04 2.56212727e-04 2.51859308e-04
  2.46088843e-04 2.38932532e-04 2.30432211e-04 2.20642608e-04
  2.09634429e-04 1.97498515e-04 1.84351332e-04 1.70342084e-04
  1.55661749e-04 1.40554212e-04 1.25329485e-04 1.10378531e-04
  9.61884563e-05 8.33555780e-05 7.25921109e-05 6.47199693e-05
  6.06429259e-05 6.12872465e-05 6.75029374e-05 7.99255741e-05
  9.88141920e-05 1.23902006e-04 1.54314651e-04 1.88608884e-04
  2.24948555e-04 2.61368645e-04 2.96018651e-04 3.27276838e-04
  3.53710070e-04 3.73972045e-04 3.86789451e-04 3.91121830e-04
  3.86441326e-04 3.72976106e-04 3.51773250e-04 3.24540984e-04
  2.93340967e-04 2.60250647e-04 2.27095697e-04 1.95297986e-04
  1.65834144e-04 1.39272400e-04 1.15850276e-04 9.55634906e-05
  7.82478681e-05 6.36459071e-05 5.14562028e-05 4.13674248e-05
  3.30799139e-05 2.63181200e-05 2.08366805e-05 1.64223443e-05
  1.28933597e-05 1.00974594e-05 7.90919878e-06 6.22713586e-06
  4.97115347e-06 4.08009920e-06 3.50984075e-06 3.23651245e-06]
 [2.76919706e-04 2.75307033e-04 2.72058650e-04 2.67212648e-04
  2.60801858e-04 2.52872078e-04 2.43483959e-04 2.32715577e-04
  2.20665805e-04 2.07458655e-04 1.93248736e-04 1.78227964e-04
  1.62633563e-04 1.46757256e-04 1.30955203e-04 1.15657778e-04
  1.01377521e-04 8.87125860e-05 7.83417358e-05 7.10057584e-05
  6.74694457e-05 6.84591192e-05 7.45742043e-05 8.61786964e-05
  1.03289303e-04 1.25488641e-04 1.51897567e-04 1.81232349e-04
  2.11945736e-04 2.42413771e-04 2.71103393e-04 2.96663312e-04
  3.17927154e-04 3.33876675e-04 3.43640069e-04 3.46571154e-04
  3.42389382e-04 3.31307549e-04 3.14071341e-04 2.91879186e-04
  2.66207426e-04 2.38599991e-04 2.10482058e-04 1.83034136e-04
  1.57135024e-04 1.33362014e-04 1.12028169e-04 9.32370659e-05
  7.69403807e-05 6.29896000e-05 5.11779494e-05 4.12718420e-05
  3.30328905e-05 2.62322485e-05 2.06591493e-05 1.61253084e-05
  1.24665422e-05 9.54262661e-06 7.23614358e-06 5.45083305e-06
  4.10980148e-06 3.15381494e-06 2.53982053e-06 2.24210658e-06]
 [2.91943155e-04 2.90186467e-04 2.86645556e-04 2.81369769e-04
  2.74402935e-04 2.65805781e-04 2.55657995e-04 2.44060940e-04
  2.31141088e-04 2.17054238e-04 2.01990555e-04 1.86180400e-04
  1.69900794e-04 1.53482144e-04 1.37314558e-04 1.21852581e-04
  1.07616622e-04 9.51885616e-05 8.51984048e-05 7.82983655e-05
  7.51211538e-05 7.62209086e-05 8.19988756e-05 9.26216838e-05
  1.07946990e-04 1.27476762e-04 1.50358581e-04 1.75446387e-04
  2.01413993e-04 2.26893704e-04 2.50600190e-04 2.71406854e-04
  2.88368126e-04 3.00711879e-04 3.07840667e-04 3.09367645e-04
  3.05181530e-04 2.95507128e-04 2.80922500e-04 2.62312130e-04
  2.40763594e-04 2.17436186e-04 1.93435118e-04 1.69716305e-04
  1.47032353e-04 1.25917522e-04 1.06701912e-04 8.95430003e-05
  7.44641655e-05 6.13928050e-05 5.01938097e-05 4.06965733e-05
  3.27153493e-05 2.60636535e-05 2.05637937e-05 1.60526609e-05
  1.23848096e-05 9.43367842e-06 7.09161435e-06 5.26919598e-06
  3.89421274e-06 2.91054916e-06 2.27714261e-06 1.96766665e-06]
 [3.05743492e-04 3.03863213e-04 3.00073059e-04 2.94432377e-04
  2.86995898e-04 2.77839019e-04 2.67059932e-04 2.54782321e-04
  2.41158639e-04 2.26373944e-04 2.10650200e-04 1.94250900e-04
  1.77485659e-04 1.60714282e-04 1.44349457e-04 1.28856900e-04
  1.14751313e-04 1.02586136e-04 9.29347965e-05 8.63613454e-05
  8.33791976e-05 8.43986381e-05 8.96668641e-05 9.92084073e-05
  1.12777758e-04 1.29838070e-04 1.49577731e-04 1.70969023e-04
  1.92861087e-04 2.14087407e-04 2.33562303e-04 2.50346216e-04
  2.63674649e-04 2.72962642e-04 2.77805346e-04 2.77990181e-04
  2.73520995e-04 2.64639996e-04 2.51828297e-04 2.35773005e-04
  2.17302281e-04 1.97301790e-04 1.76630829e-04 1.56053896e-04
  1.36196476e-04 1.17526304e-04 1.00355936e-04 8.48599140e-05
  7.10997100e-05 5.90508982e-05 4.86288168e-05 3.97106350e-05
  3.21530274e-05 2.58054926e-05 2.05198182e-05 1.61563871e-05
  1.25880474e-05 9.70219862e-06 7.40164621e-06 5.60465968e-06
  4.24456775e-06 3.26913584e-06 2.63990062e-06 2.33087105e-06]
 [3.18429500e-04 3.16446271e-04 3.12450549e-04 3.06510106e-04
  2.98690042e-04 2.89079609e-04 2.77794287e-04 2.64978320e-04
  2.50807669e-04 2.35493248e-04 2.19284290e-04 2.02471543e-04
  1.85389883e-04 1.68419728e-04 1.51986397e-04 1.36556321e-04
  1.22628736e-04 1.10721369e-04 1.01348682e-04 9.49917226e-05
  9.20597042e-05 9.28451655e-05 9.74770229e-05 1.05878454e-04
  1.17738612e-04 1.32507410e-04 1.49419946e-04 1.67551222e-04
  1.85893875e-04 2.03444561e-04 2.19281832e-04 2.32622012e-04
  2.42848583e-04 2.49520599e-04 2.52371423e-04 2.51307641e-04
  2.46411009e-04 2.37938505e-04 2.26311934e-04 2.12090733e-04
  1.95927828e-04 1.78514740e-04 1.60525607e-04 1.42569438e-04
  1.25156728e-04 1.08682436e-04 9.34237950e-05 7.95493583e-05
  6.71349980e-05 5.61829927e-05 4.66412535e-05 3.84207892e-05
  3.14104240e-05 2.54884640e-05 2.05314451e-05 1.64203381e-05
  1.30446794e-05 1.03051033e-05 8.11470495e-06 6.39959912e-06
  5.09896441e-06 4.16479959e-06 3.56155880e-06 3.26427086e-06]
 [3.30112179e-04 3.28046357e-04 3.23888099e-04 3.17711727e-04
  3.09591803e-04 2.99630117e-04 2.87957632e-04 2.74736750e-04
  2.60163806e-04 2.44471590e-04 2.27931635e-04 2.10855937e-04
  1.93597596e-04 1.76549770e-04 1.60142132e-04 1.44833893e-04
  1.31102370e-04 1.19426109e-04 1.10261885e-04 1.04015485e-04
  1.01007258e-04 1.01434865e-04 1.05337428e-04 1.12566843e-04
  1.22772913e-04 1.35408316e-04 1.49756828e-04 1.64983732e-04
  1.80202045e-04 1.94543842e-04 2.07224546e-04 2.17590566e-04
  2.25146271e-04 2.29562625e-04 2.30673930e-04 2.28469358e-04
  2.23082934e-04 2.14781518e-04 2.03947809e-04 1.91055638e-04
  1.76637305e-04 1.61245863e-04 1.45417271e-04 1.29637623e-04
  1.14319275e-04 9.97875093e-05 8.62773048e-05 7.39382839e-05
  6.28452350e-05 5.30116204e-05 4.44039056e-05 3.69551661e-05
  3.05770347e-05 2.51695628e-05 2.06289300e-05 1.68531677e-05
  1.37461839e-05 1.12204173e-05 9.19844483e-06 7.61383140e-06
  6.41146676e-06 5.54758548e-06 4.98962204e-06 4.71408089e-06]
 [3.40897463e-04 3.38768743e-04 3.34489540e-04 3.28138625e-04
  3.19798772e-04 3.09582581e-04 2.97634216e-04 2.84131345e-04
  2.69287102e-04 2.53351821e-04 2.36614240e-04 2.19401757e-04
  2.02079254e-04 1.85045876e-04 1.68729073e-04 1.53575185e-04
  1.40035857e-04 1.28549786e-04 1.19519679e-04 1.13284945e-04
  1.10091588e-04 1.10061906e-04 1.13167772e-04 1.19212150e-04
  1.27823637e-04 1.38467866e-04 1.50477264e-04 1.63097321e-04
  1.75543871e-04 1.87063145e-04 1.96985608e-04 2.04766372e-04
  2.10008664e-04 2.12471115e-04 2.12062733e-04 2.08830409e-04
  2.02942670e-04 1.94671334e-04 1.84370944e-04 1.72455398e-04
  1.59371886e-04 1.45573547e-04 1.31493282e-04 1.17521417e-04
  1.03989337e-04 9.11601106e-05 7.92259712e-05 6.83115577e-05
  5.84813327e-05 4.97494627e-05 4.20906440e-05 3.54507016e-05
  2.97561816e-05 2.49225123e-05 2.08605895e-05 1.74818328e-05
  1.47018804e-05 1.24431436e-05 1.06364584e-05 9.22205943e-06
  8.15007432e-06 7.38070429e-06 6.88422271e-06 6.63888561e-06]
 [3.50880753e-04 3.48707920e-04 3.44347402e-04 3.37880143e-04
  3.29395610e-04 3.19015143e-04 3.06893473e-04 2.93220298e-04
  2.78221700e-04 2.62161102e-04 2.45339424e-04 2.28094005e-04
  2.10795812e-04 1.93844391e-04 1.77659995e-04 1.62672385e-04
  1.49305901e-04 1.37960685e-04 1.28990368e-04 1.22677134e-04
  1.19205874e-04 1.18639947e-04 1.20901827e-04 1.25762302e-04
  1.32841612e-04 1.41624850e-04 1.51491984e-04 1.61760307e-04
  1.71734559e-04 1.80758204e-04 1.88258941e-04 1.93782834e-04
  1.97014072e-04 1.97780372e-04 1.96046548e-04 1.91899915e-04
  1.85531082e-04 1.77212613e-04 1.67276890e-04 1.56093779e-04
  1.44048596e-04 1.31521150e-04 1.18867033e-04 1.06402376e-04
  9.43930636e-05 8.30488492e-05 7.25221803e-05 6.29110406e-05
  5.42647648e-05 4.65916942e-05 3.98676207e-05 3.40441698e-05
  2.90565216e-05 2.48301109e-05 2.12861498e-05 1.83459697e-05
  1.59342770e-05 1.39814750e-05 1.24252257e-05 1.12114242e-05
  1.02947457e-05 9.63890129e-06 9.21671505e-06 9.00834299e-06]
 [3.60142945e-04 3.57943755e-04 3.53539343e-04 3.47010427e-04
  3.38451429e-04 3.27990113e-04 3.15788883e-04 3.02046017e-04
  2.86996568e-04 2.70912610e-04 2.54102455e-04 2.36908415e-04
  2.19702648e-04 2.02880638e-04 1.86851878e-04 1.72027440e-04
  1.58804316e-04 1.47546705e-04 1.38564865e-04 1.32092681e-04
  1.28265728e-04 1.27102169e-04 1.28489259e-04 1.32178286e-04
  1.37790302e-04 1.44833942e-04 1.52734971e-04 1.60875254e-04
  1.68637024e-04 1.75447118e-04 1.80815696e-04 1.84364996e-04
  1.85845577e-04 1.85139811e-04 1.82254383e-04 1.77304758e-04
  1.70494838e-04 1.62094580e-04 1.52417540e-04 1.41799574e-04
  1.30579467e-04 1.19082043e-04 1.07604256e-04 9.64047103e-05
  8.56968658e-05 7.56459186e-05 6.63690585e-05 5.79385189e-05
  5.03866825e-05 4.37124488e-05 3.78881314e-05 3.28662823e-05
  2.85860015e-05 2.49784576e-05 2.19714899e-05 1.94932755e-05
  1.74751204e-05 1.58534863e-05 1.45713838e-05 1.35792668e-05
  1.28355575e-05 1.23069131e-05 1.19683300e-05 1.18019344e-05]
 [3.68747646e-04 3.66538831e-04 3.62125739e-04 3.55586393e-04
  3.47018265e-04 3.36553043e-04 3.24357742e-04 3.10635651e-04
  2.95626795e-04 2.79607587e-04 2.62889252e-04 2.45814642e-04
  2.28752997e-04 2.12092294e-04 1.96228891e-04 1.81554322e-04
  1.68439349e-04 1.57215679e-04 1.48156180e-04 1.41454865e-04
  1.37208392e-04 1.35401220e-04 1.35896700e-04 1.38436274e-04
  1.42648375e-04 1.48067600e-04 1.54163362e-04 1.60375723e-04
  1.66154772e-04 1.70999101e-04 1.74488937e-04 1.76310317e-04
  1.76268205e-04 1.74288250e-04 1.70408534e-04 1.64763768e-04
  1.57564858e-04 1.49076583e-04 1.39595576e-04 1.29430133e-04
  1.18882777e-04 1.08236055e-04 9.77417715e-05 8.76136790e-05
  7.80234433e-05 6.90996015e-05 6.09290579e-05 5.35605693e-05
  4.70096191e-05 4.12640869e-05 3.62901824e-05 3.20382121e-05
  2.84478687e-05 2.54528466e-05 2.29846923e-05 2.09758832e-05
  1.93621818e-05 1.80843561e-05 1.70893687e-05 1.63311466e-05
  1.57710371e-05 1.53780426e-05 1.51289140e-05 1.50077815e-05]
 [3.76739275e-04 3.74536660e-04 3.70148135e-04 3.63646514e-04
  3.55130297e-04 3.44732464e-04 3.32621476e-04 3.19002014e-04
  3.04115125e-04 2.88237418e-04 2.71678896e-04 2.54779045e-04
  2.37900789e-04 2.21422025e-04 2.05724576e-04 1.91180551e-04
  1.78136414e-04 1.66895332e-04 1.57698776e-04 1.50708697e-04
  1.45991968e-04 1.43508966e-04 1.43108216e-04 1.44528715e-04
  1.47410958e-04 1.51316748e-04 1.55756740e-04 1.60223447e-04
  1.64226491e-04 1.67326315e-04 1.69162680e-04 1.69474990e-04
  1.68112725e-04 1.65035718e-04 1.60305405e-04 1.54069158e-04
  1.46540330e-04 1.37976597e-04 1.28658814e-04 1.18871981e-04
  1.08889343e-04 9.89600607e-05 8.93005504e-05 8.00892625e-05
  7.14645340e-05 6.35250190e-05 5.63321523e-05 4.99140854e-05
  4.42705555e-05 3.93782004e-05 3.51959102e-05 3.16699007e-05
  2.87382884e-05 2.63350366e-05 2.43932222e-05 2.28476303e-05
  2.16367286e-05 2.07041006e-05 1.99994284e-05 1.94791206e-05
  1.91066750e-05 1.88528557e-05 1.86957535e-05 1.86215308e-05]
 [3.84141808e-04 3.81960528e-04 3.77628281e-04 3.71210147e-04
  3.62803540e-04 3.52540013e-04 3.40586240e-04 3.27144665e-04
  3.12453480e-04 2.96785539e-04 2.80445813e-04 2.63766986e-04
  2.47102879e-04 2.30819458e-04 2.15283368e-04 2.00848125e-04
  1.87838381e-04 1.76532975e-04 1.67147828e-04 1.59820018e-04
  1.54594635e-04 1.51416079e-04 1.50125388e-04 1.50464804e-04
  1.52090167e-04 1.54590894e-04 1.57516299e-04 1.60406079e-04
  1.62822066e-04 1.64377970e-04 1.64764037e-04 1.63764168e-04
  1.61264092e-04 1.57250450e-04 1.51801741e-04 1.45073036e-04
  1.37276793e-04 1.28662180e-04 1.19495018e-04 1.10039944e-04
  1.00545786e-04 9.12346359e-05 8.22946230e-05 7.38760968e-05
  6.60907276e-05 5.90129408e-05 5.26830755e-05 4.71116916e-05
  4.22845098e-05 3.81675542e-05 3.47121576e-05 3.18595879e-05
  2.95451349e-05 2.77015779e-05 2.62620146e-05 2.51620760e-05
  2.43415889e-05 2.37457601e-05 2.33259702e-05 2.30402613e-05
  2.28536005e-05 2.27379882e-05 2.26724739e-05 2.26452958e-05]
 [3.90957953e-04 3.88812746e-04 3.84567552e-04 3.78277195e-04
  3.70035810e-04 3.59970739e-04 3.48243591e-04 3.35050945e-04
  3.20624332e-04 3.05229071e-04 2.89161559e-04 2.72744638e-04
  2.56320731e-04 2.40242577e-04 2.24861584e-04 2.10514015e-04
  1.97505553e-04 1.86095034e-04 1.76478457e-04 1.68774626e-04
  1.63013902e-04 1.59131587e-04 1.56967209e-04 1.56270647e-04
  1.56715336e-04 1.57918086e-04 1.59464169e-04 1.60935566e-04
  1.61939759e-04 1.62136174e-04 1.61257669e-04 1.59125004e-04
  1.55653178e-04 1.50849556e-04 1.44804693e-04 1.37677549e-04
  1.29677219e-04 1.21043371e-04 1.12027365e-04 1.02875586e-04
  9.38159487e-05 8.50480590e-05 7.67370119e-05 6.90105155e-05
  6.19588064e-05 5.56367338e-05 5.00673770e-05 4.52466091e-05
  4.11481070e-05 3.77284023e-05 3.49316766e-05 3.26940972e-05
  3.09475755e-05 2.96228997e-05 2.86522443e-05 2.79711004e-05
  2.75196923e-05 2.72439591e-05 2.70961875e-05 2.70353736e-05
  2.70273926e-05 2.70450388e-05 2.70679938e-05 2.70866396e-05]
 [3.97168590e-04 3.95074161e-04 3.90946592e-04 3.84827930e-04
  3.76806787e-04 3.67003440e-04 3.55571108e-04 3.42696868e-04
  3.28601831e-04 3.13540111e-04 2.97796199e-04 2.81680339e-04
  2.65521621e-04 2.49658677e-04 2.34428019e-04 2.20150355e-04
  2.07115464e-04 1.95566519e-04 1.85684994e-04 1.77577498e-04
  1.71265948e-04 1.66682449e-04 1.63669952e-04 1.61989369e-04
  1.61333192e-04 1.61344939e-04 1.61643036e-04 1.61847130e-04
  1.61604371e-04 1.60613145e-04 1.58641966e-04 1.55541800e-04
  1.51250928e-04 1.45792352e-04 1.39264624e-04 1.31827638e-04
  1.23685306e-04 1.15067142e-04 1.06210571e-04 9.73453639e-05
  8.86811685e-05 8.03985448e-05 7.26435274e-05 6.55253869e-05
  5.91170642e-05 5.34576480e-05 4.85562602e-05 4.43967647e-05
  4.09428069e-05 3.81427991e-05 3.59345733e-05 3.42495221e-05
  3.30161345e-05 3.21628957e-05 3.16205708e-05 3.13239271e-05
  3.12129664e-05 3.12337500e-05 3.13389011e-05 3.14878639e-05
  3.16469910e-05 3.17895233e-05 3.18955121e-05 3.19575770e-05]
 [4.02732362e-04 4.00703796e-04 3.96725049e-04 3.90822886e-04
  3.83078082e-04 3.73600929e-04 3.62532869e-04 3.50047802e-04
  3.36352648e-04 3.21686700e-04 3.06319314e-04 2.90545549e-04
  2.74679461e-04 2.59044953e-04 2.43964260e-04 2.29744449e-04
  2.16662589e-04 2.04950510e-04 1.94780344e-04 1.86252168e-04
  1.79385130e-04 1.74113294e-04 1.70287158e-04 1.67681318e-04
  1.66008176e-04 1.64936895e-04 1.64116173e-04 1.63198876e-04
  1.61866269e-04 1.59849541e-04 1.56946611e-04 1.53032759e-04
  1.48064332e-04 1.42075655e-04 1.35169950e-04 1.27505730e-04
  1.19280416e-04 1.10713026e-04 1.02027604e-04 9.34387140e-05
  8.51398589e-05 7.72952642e-05 7.00350180e-05 6.34532731e-05
  5.76089976e-05 5.25286665e-05 4.82102698e-05 4.46280686e-05
  4.17376159e-05 3.94806694e-05 3.77897314e-05 3.65920492e-05
  3.58129936e-05 3.53787971e-05 3.52186800e-05 3.52664253e-05
  3.54614780e-05 3.57496554e-05 3.60835513e-05 3.64227147e-05
  3.67336731e-05 3.69898616e-05 3.71715080e-05 3.72735793e-05]
 [4.07585337e-04 4.05638546e-04 4.01841351e-04 3.96202725e-04
  3.88793229e-04 3.79710171e-04 3.69079740e-04 3.57058894e-04
  3.43836528e-04 3.29633452e-04 3.14700657e-04 2.99315476e-04
  2.83775321e-04 2.68388872e-04 2.53464843e-04 2.39298708e-04
  2.26158083e-04 2.14267750e-04 2.03795520e-04 1.94840303e-04
  1.87423706e-04 1.81486363e-04 1.76889842e-04 1.73424495e-04
  1.70823015e-04 1.68778839e-04 1.66967926e-04 1.65072017e-04
  1.62801211e-04 1.59913761e-04 1.56231269e-04 1.51648011e-04
  1.46133802e-04 1.39730572e-04 1.32543470e-04 1.24727843e-04
  1.16473744e-04 1.07989641e-04 9.94868829e-05 9.11661416e-05
  8.32066307e-05 7.57585106e-05 6.89384836e-05 6.28282992e-05
  5.74756878e-05 5.28971400e-05 4.90819358e-05 4.59968694e-05
  4.35912054e-05 4.18015018e-05 4.05560446e-05 3.97787350e-05
  3.93923505e-05 3.93211682e-05 3.94929813e-05 3.98405721e-05
  4.03027206e-05 4.08248341e-05 4.13592828e-05 4.18655208e-05
  4.23100628e-05 4.26663750e-05 4.29147327e-05 4.30525639e-05]
 [4.11640741e-04 4.09792932e-04 4.06212480e-04 4.00888069e-04
  3.93877592e-04 3.85262274e-04 3.75149457e-04 3.63675253e-04
  3.51006555e-04 3.37341885e-04 3.22910516e-04 3.07969428e-04
  2.92797722e-04 2.77688362e-04 2.62937328e-04 2.48830588e-04
  2.35629604e-04 2.23556396e-04 2.12779404e-04 2.03401553e-04
  1.95451857e-04 1.88881760e-04 1.83567001e-04 1.79315319e-04
  1.75879688e-04 1.72976147e-04 1.70304748e-04 1.67571741e-04
  1.64510915e-04 1.60902110e-04 1.56585247e-04 1.51468716e-04
  1.45531673e-04 1.38820442e-04 1.31439845e-04 1.23540751e-04
  1.15305371e-04 1.06931882e-04 9.86198159e-05 9.05573212e-05
  8.29110798e-05 7.58192300e-05 6.93873171e-05 6.36870084e-05
  5.87571181e-05 5.46063938e-05 5.12174941e-05 4.85516300e-05
  4.65534182e-05 4.51555972e-05 4.42833554e-05 4.38581169e-05
  4.38007097e-05 4.40339030e-05 4.44843474e-05 4.50839795e-05
  4.57709711e-05 4.64903066e-05 4.71940745e-05 4.78415514e-05
  4.83991476e-05 4.88402744e-05 4.91451813e-05 4.93138572e-05]
 [4.14788752e-04 4.13058895e-04 4.09733780e-04 4.04779309e-04
  3.98238181e-04 3.90172329e-04 3.80666504e-04 3.69831878e-04
  3.57809139e-04 3.44770468e-04 3.30919816e-04 3.16490941e-04
  3.01742778e-04 2.86951934e-04 2.72402366e-04 2.58372609e-04
  2.45121294e-04 2.32872006e-04 2.21798779e-04 2.12013703e-04
  2.03558037e-04 1.96398066e-04 1.90426518e-04 1.85469817e-04
  1.81300856e-04 1.77656288e-04 1.74256847e-04 1.70828787e-04
  1.67124421e-04 1.62939810e-04 1.58128044e-04 1.52607065e-04
  1.46361631e-04 1.39439686e-04 1.31943941e-04 1.24019922e-04
  1.15841954e-04 1.07598551e-04 9.94785659e-05 9.16591610e-05
  8.42962867e-05 7.75180312e-05 7.14208445e-05 6.60683919e-05
  6.14926126e-05 5.76964614e-05 5.46577939e-05 5.23338895e-05
  5.06661812e-05 4.95848508e-05 4.90130492e-05 4.88705874e-05
  4.90770250e-05 4.95541414e-05 5.02278217e-05 5.10294167e-05
  5.18966554e-05 5.27741924e-05 5.36138754e-05 5.43748083e-05
  5.50232809e-05 5.55326229e-05 5.58830316e-05 5.60771221e-05]
 [4.16896470e-04 4.15305745e-04 4.12278851e-04 4.07756441e-04
  4.01763431e-04 3.94339144e-04 3.85541821e-04 3.75453370e-04
  3.64183760e-04 3.51874421e-04 3.38699988e-04 3.24867737e-04
  3.10614220e-04 2.96198767e-04 2.81893833e-04 2.67972520e-04
  2.54693981e-04 2.42287795e-04 2.30938697e-04 2.20773210e-04
  2.11849735e-04 2.04153390e-04 1.97596547e-04 1.92025348e-04
  1.87231892e-04 1.82971082e-04 1.78980556e-04 1.75001786e-04
  1.70800261e-04 1.66182845e-04 1.61010747e-04 1.55207120e-04
  1.48758932e-04 1.41713396e-04 1.34169806e-04 1.26267994e-04
  1.18174835e-04 1.10070238e-04 1.02133889e-04 9.45337555e-05
  8.74170161e-05 8.09037290e-05 7.50832586e-05 7.00132180e-05
  6.57205234e-05 6.22040667e-05 5.94384901e-05 5.73785793e-05
  5.59638604e-05 5.51230737e-05 5.47782862e-05 5.48484950e-05
  5.52526460e-05 5.59120520e-05 5.67522391e-05 5.77042789e-05
  5.87056806e-05 5.97009246e-05 6.06417206e-05 6.14870631e-05
  6.22031572e-05 6.27632683e-05 6.31475475e-05 6.33612480e-05]
 [4.17808169e-04 4.16380362e-04 4.13699651e-04 4.09679038e-04
  4.04323029e-04 3.97644927e-04 3.89672384e-04 3.80453444e-04
  3.70062475e-04 3.58605279e-04 3.46222633e-04 3.33091513e-04
  3.19423339e-04 3.05458796e-04 2.91459056e-04 2.77693651e-04
  2.64425645e-04 2.51895231e-04 2.40303227e-04 2.29796166e-04
  2.20454722e-04 2.12286960e-04 2.05227497e-04 1.99142987e-04
  1.93843643e-04 1.89099756e-04 1.84661576e-04 1.80280522e-04
  1.75729552e-04 1.70820714e-04 1.65418272e-04 1.59446426e-04
  1.52891292e-04 1.45797482e-04 1.38260125e-04 1.30413594e-04
  1.22418344e-04 1.14447283e-04 1.06672898e-04 9.92561229e-05
  9.23375688e-05 8.60314194e-05 8.04219922e-05 7.55627345e-05
  7.14772593e-05 6.81619454e-05 6.55896062e-05 6.37137605e-05
  6.24731065e-05 6.17958818e-05 6.16038780e-05 6.18159656e-05
  6.23510522e-05 6.31304581e-05 6.40797340e-05 6.51299763e-05
  6.62187102e-05 6.72904208e-05 6.82968110e-05 6.91968607e-05
  6.99567553e-05 7.05497395e-05 7.09559457e-05 7.11832034e-05]
 [4.17346052e-04 4.16107864e-04 4.13826990e-04 4.10386503e-04
  4.05767902e-04 3.99955028e-04 3.92940721e-04 3.84734301e-04
  3.75369228e-04 3.64910222e-04 3.53458978e-04 3.41157594e-04
  3.28188873e-04 3.14772853e-04 3.01159194e-04 2.87615511e-04
  2.74412219e-04 2.61805029e-04 2.50016673e-04 2.39219775e-04
  2.29522868e-04 2.20961352e-04 2.13494733e-04 2.07010740e-04
  2.01336115e-04 1.96253016e-04 1.91519266e-04 1.86890254e-04
  1.82140131e-04 1.77080157e-04 1.71572485e-04 1.65538357e-04
  1.58960384e-04 1.51879274e-04 1.44385940e-04 1.36610284e-04
  1.28708110e-04 1.20847601e-04 1.13196595e-04 1.05911605e-04
  9.91292078e-05 9.29600580e-05 8.74855378e-05 8.27567851e-05
  7.87957173e-05 7.55975804e-05 7.31345381e-05 7.13598489e-05
  7.02122431e-05 6.96201903e-05 6.95058347e-05 6.97884549e-05
  7.03873735e-05 7.12242993e-05 7.22251248e-05 7.33212315e-05
  7.44503718e-05 7.55572033e-05 7.65935537e-05 7.75184888e-05
  7.82982494e-05 7.89061137e-05 7.93222328e-05 7.95568596e-05]
 [4.15311768e-04 4.14292988e-04 4.12471642e-04 4.09698827e-04
  4.05930560e-04 4.01117846e-04 3.95214455e-04 3.88185888e-04
  3.80018955e-04 3.70731185e-04 3.60379114e-04 3.49064420e-04
  3.36936826e-04 3.24192856e-04 3.11069794e-04 2.97834679e-04
  2.84768777e-04 2.72148617e-04 2.60225327e-04 2.49204452e-04
  2.39228656e-04 2.30365526e-04 2.22602210e-04 2.15847792e-04
  2.09943316e-04 2.04678361e-04 1.99812246e-04 1.95097352e-04
  1.90301937e-04 1.85229992e-04 1.79736247e-04 1.73735199e-04
  1.67203821e-04 1.60178389e-04 1.52746465e-04 1.45035431e-04
  1.37199141e-04 1.29404176e-04 1.21816973e-04 1.14592786e-04
  1.07867057e-04 1.01749484e-04 9.63207019e-05 9.16313599e-05
  8.77031612e-05 8.45314086e-05 8.20885661e-05 8.03283909e-05
  7.91902566e-05 7.86033632e-05 7.84906205e-05 7.87720618e-05
  7.93677197e-05 8.01999436e-05 8.11951835e-05 8.22852906e-05
  8.34083998e-05 8.45094715e-05 8.55405654e-05 8.64609195e-05
  8.72368981e-05 8.78418643e-05 8.82560245e-05 8.84917978e-05]
 [4.11489076e-04 4.10722560e-04 4.09426423e-04 4.07418124e-04
  4.04626006e-04 4.00965118e-04 3.96345999e-04 3.90685134e-04
  3.83916539e-04 3.76003724e-04 3.66950990e-04 3.56812849e-04
  3.45700212e-04 3.33782062e-04 3.21281556e-04 3.08466050e-04
  2.95631204e-04 2.83080191e-04 2.71099900e-04 2.59936683e-04
  2.49774577e-04 2.40718863e-04 2.32787262e-04 2.25910105e-04
  2.19939594e-04 2.14667012e-04 2.09845647e-04 2.05216531e-04
  2.00533857e-04 1.95587217e-04 1.90218465e-04 1.84331915e-04
  1.77897539e-04 1.70947721e-04 1.63568760e-04 1.55888734e-04
  1.48063432e-04 1.40261983e-04 1.32653506e-04 1.25395758e-04
  1.18626360e-04 1.12456820e-04 1.06969265e-04 1.02215588e-04
  9.82185820e-05 9.49745542e-05 9.24569393e-05 9.06204597e-05
  8.94054536e-05 8.87420769e-05 8.85541682e-05 8.87626431e-05
  8.92883502e-05 9.00543743e-05 9.09878114e-05 9.20210648e-05
  9.30927299e-05 9.41481415e-05 9.51396557e-05 9.60267390e-05
  9.67759266e-05 9.73607048e-05 9.77613640e-05 9.79921170e-05]
 [4.05648093e-04 4.05169459e-04 4.04469616e-04 4.03331307e-04
  4.01653536e-04 3.99312779e-04 3.96172558e-04 3.92095233e-04
  3.86955602e-04 3.80655611e-04 3.73139105e-04 3.64405215e-04
  3.54518683e-04 3.43615370e-04 3.31901350e-04 3.19644512e-04
  3.07158448e-04 2.94779469e-04 2.82838777e-04 2.71632835e-04
  2.61395621e-04 2.52276506e-04 2.44326916e-04 2.37497743e-04
  2.31647919e-04 2.26562909e-04 2.21980467e-04 2.17620097e-04
  2.13212361e-04 2.08524568e-04 2.03380193e-04 1.97670546e-04
  1.91358394e-04 1.84474269e-04 1.77106964e-04 1.69390102e-04
  1.61486779e-04 1.53574057e-04 1.45828761e-04 1.38415569e-04
  1.31477963e-04 1.25132176e-04 1.19464017e-04 1.14528182e-04
  1.10349582e-04 1.06926147e-04 1.04232601e-04 1.02224744e-04
  1.00843858e-04 1.00020966e-04 9.96807153e-05 9.97447839e-05
  1.00134730e-04 1.00774292e-04 1.01591152e-04 1.02518232e-04
  1.03494570e-04 1.04465876e-04 1.05384811e-04 1.06211087e-04
  1.06911426e-04 1.07459455e-04 1.07835565e-04 1.08055268e-04]
 [3.97551688e-04 3.97398646e-04 3.97370264e-04 3.97214368e-04
  3.96799800e-04 3.95962734e-04 3.94516644e-04 3.92265095e-04
  3.89017189e-04 3.84605123e-04 3.78902819e-04 3.71844044e-04
  3.63437954e-04 3.53779663e-04 3.43053509e-04 3.31527133e-04
  3.19535500e-04 3.07455364e-04 2.95672336e-04 2.84544197e-04
  2.74365204e-04 2.65336377e-04 2.57546186e-04 2.50964513e-04
  2.45450719e-04 2.40774417e-04 2.36645616e-04 2.32749692e-04
  2.28782288e-04 2.24479743e-04 2.19641838e-04 2.14145139e-04
  2.07946743e-04 2.01079505e-04 1.93640703e-04 1.85776482e-04
  1.77664434e-04 1.69496382e-04 1.61462902e-04 1.53740644e-04
  1.46482908e-04 1.39813584e-04 1.33824160e-04 1.28573360e-04
  1.24088829e-04 1.20370296e-04 1.17393639e-04 1.15115413e-04
  1.13477430e-04 1.12411127e-04 1.11841531e-04 1.11690688e-04
  1.11880532e-04 1.12335181e-04 1.12982689e-04 1.13756333e-04
  1.14595482e-04 1.15446136e-04 1.16261213e-04 1.17000634e-04
  1.17631296e-04 1.18126958e-04 1.18468105e-04 1.18670940e-04]
 [3.86964658e-04 3.87175851e-04 3.87895913e-04 3.88838784e-04
  3.89843593e-04 3.90705895e-04 3.91187386e-04 3.91029116e-04
  3.89968366e-04 3.87758967e-04 3.84194160e-04 3.79130303e-04
  3.72508949e-04 3.64374120e-04 3.54881428e-04 3.44295997e-04
  3.32977299e-04 3.21350806e-04 3.09868634e-04 2.98963616e-04
  2.89002975e-04 2.80248445e-04 2.72829034e-04 2.66730663e-04
  2.61804121e-04 2.57789597e-04 2.54353461e-04 2.51131227e-04
  2.47770252e-04 2.43966511e-04 2.39491444e-04 2.34206950e-04
  2.28068607e-04 2.21118764e-04 2.13472169e-04 2.05297142e-04
  1.96795162e-04 1.88181241e-04 1.79666790e-04 1.71445984e-04
  1.63686012e-04 1.56521127e-04 1.50050074e-04 1.44336285e-04
  1.39410167e-04 1.35272814e-04 1.31900559e-04 1.29249870e-04
  1.27262209e-04 1.25868582e-04 1.24993619e-04 1.24559059e-04
  1.24486641e-04 1.24700393e-04 1.25128371e-04 1.25703919e-04
  1.26366517e-04 1.27062299e-04 1.27744322e-04 1.28372642e-04
  1.28914276e-04 1.29343080e-04 1.29639615e-04 1.29820045e-04]
 [3.73666372e-04 3.74279625e-04 3.75823482e-04 3.77980696e-04
  3.80562959e-04 3.83326964e-04 3.85982966e-04 3.88207469e-04
  3.89660791e-04 3.90009760e-04 3.88954969e-04 3.86260968e-04
  3.81786454e-04 3.75510426e-04 3.67549515e-04 3.58161831e-04
  3.47733836e-04 3.36749096e-04 3.25740912e-04 3.15234249e-04
  3.05685132e-04 2.97427005e-04 2.90632914e-04 2.85299751e-04
  2.81256776e-04 2.78196216e-04 2.75719926e-04 2.73393793e-04
  2.70801173e-04 2.67587899e-04 2.63493927e-04 2.58369549e-04
  2.52176850e-04 2.44979005e-04 2.36921150e-04 2.28206770e-04
  2.19073145e-04 2.09768601e-04 2.00533373e-04 1.91584984e-04
  1.83108348e-04 1.75250243e-04 1.68117504e-04 1.61778129e-04
  1.56264479e-04 1.51577810e-04 1.47693505e-04 1.44566494e-04
  1.42136489e-04 1.40332788e-04 1.39078489e-04 1.38294062e-04
  1.37900246e-04 1.37820326e-04 1.37981838e-04 1.38317788e-04
  1.38767456e-04 1.39276879e-04 1.39799084e-04 1.40294138e-04
  1.40729091e-04 1.41077842e-04 1.41320989e-04 1.41473824e-04]
 [3.57467584e-04 3.58517425e-04 3.60953929e-04 3.64433532e-04
  3.68745225e-04 3.73611532e-04 3.78694634e-04 3.83607193e-04
  3.87929356e-04 3.91232982e-04 3.93113154e-04 3.93225635e-04
  3.91327056e-04 3.87312725e-04 3.81245493e-04 3.73368629e-04
  3.64096816e-04 3.53982277e-04 3.43657510e-04 3.33761176e-04
  3.24858145e-04 3.17367059e-04 3.11508244e-04 3.07281184e-04
  3.04474897e-04 3.02708102e-04 3.01490529e-04 3.00293618e-04
  2.98618519e-04 2.96051529e-04 2.92300899e-04 2.87213120e-04
  2.80770469e-04 2.73073976e-04 2.64317138e-04 2.54755594e-04
  2.44677124e-04 2.34375088e-04 2.24127113e-04 2.14179705e-04
  2.04738619e-04 1.95964283e-04 1.87971289e-04 1.80830885e-04
  1.74575481e-04 1.69204317e-04 1.64689586e-04 1.60982533e-04
  1.58019159e-04 1.55725317e-04 1.54021095e-04 1.52824447e-04
  1.52054092e-04 1.51631751e-04 1.51483792e-04 1.51542378e-04
  1.51746202e-04 1.52040913e-04 1.52379289e-04 1.52721255e-04
  1.53033779e-04 1.53290723e-04 1.53472673e-04 1.53593137e-04]
 [3.38231947e-04 3.39746332e-04 3.43131372e-04 3.48024751e-04
  3.54200690e-04 3.61356143e-04 3.69112862e-04 3.77024470e-04
  3.84591036e-04 3.91283304e-04 3.96577739e-04 4.00001757e-04
  4.01185939e-04 3.99917056e-04 3.96183038e-04 3.90199519e-04
  3.82408379e-04 3.73442237e-04 3.64055086e-04 3.55026896e-04
  3.47057142e-04 3.40666377e-04 3.36124680e-04 3.33420641e-04
  3.32275847e-04 3.32200052e-04 3.32574223e-04 3.32744318e-04
  3.32108834e-04 3.30186999e-04 3.26660387e-04 3.21386873e-04
  3.14390716e-04 3.05835472e-04 2.95987302e-04 2.85175579e-04
  2.73756075e-04 2.62080105e-04 2.50471209e-04 2.39209581e-04
  2.28523489e-04 2.18586464e-04 2.09518821e-04 2.01392160e-04
  1.94235651e-04 1.88043155e-04 1.82780485e-04 1.78392300e-04
  1.74808339e-04 1.71948838e-04 1.69729052e-04 1.68062930e-04
  1.66865970e-04 1.66057376e-04 1.65561600e-04 1.65309383e-04
  1.65238393e-04 1.65293555e-04 1.65427155e-04 1.65598791e-04
  1.65775222e-04 1.65930183e-04 1.66044184e-04 1.66127975e-04]
 [3.15902507e-04 3.17898712e-04 3.22267078e-04 3.28637284e-04
  3.36780620e-04 3.46382069e-04 3.57036303e-04 3.68248578e-04
  3.79444186e-04 3.89990193e-04 3.99232340e-04 4.06547904e-04
  4.11411933e-04 4.13469831e-04 4.12604650e-04 4.08984171e-04
  4.03072563e-04 3.95595515e-04 3.87456346e-04 3.79612195e-04
  3.72930774e-04 3.68055487e-04 3.65306970e-04 3.64641512e-04
  3.65673539e-04 3.67754353e-04 3.70087448e-04 3.71854939e-04
  3.72330974e-04 3.70964755e-04 3.67425142e-04 3.61607783e-04
  3.53612126e-04 3.43698911e-04 3.32238867e-04 3.19661583e-04
  3.06410698e-04 2.92908728e-04 2.79532518e-04 2.66598634e-04
  2.54357100e-04 2.42991510e-04 2.32623554e-04 2.23320257e-04
  2.15102567e-04 2.07954273e-04 2.01830572e-04 1.96665856e-04
  1.92380490e-04 1.88886506e-04 1.86092233e-04 1.83905927e-04
  1.82238536e-04 1.81005707e-04 1.80129172e-04 1.79537635e-04
  1.79167272e-04 1.78961937e-04 1.78873165e-04 1.78860035e-04
  1.78888962e-04 1.78933456e-04 1.78973885e-04 1.79017243e-04]
 [2.90532847e-04 2.93012620e-04 2.98368342e-04 3.06235940e-04
  3.16400126e-04 3.28553518e-04 3.42284362e-04 3.57068225e-04
  3.72268678e-04 3.87152751e-04 4.00926523e-04 4.12794208e-04
  4.22039877e-04 4.28124615e-04 4.30784463e-04 4.30108067e-04
  4.26570419e-04 4.21003207e-04 4.14494055e-04 4.08224524e-04
  4.03275207e-04 4.00438911e-04 4.00084428e-04 4.02101969e-04
  4.05940399e-04 4.10723127e-04 4.15411531e-04 4.18977453e-04
  4.20550157e-04 4.19515173e-04 4.15557296e-04 4.08653005e-04
  3.99025812e-04 3.87080905e-04 3.73334099e-04 3.58346292e-04
  3.42670079e-04 3.26811171e-04 3.11204298e-04 2.96201531e-04
  2.82070194e-04 2.68997446e-04 2.57099000e-04 2.46429919e-04
  2.36996020e-04 2.28764864e-04 2.21675746e-04 2.15648371e-04
  2.10590116e-04 2.06401912e-04 2.02982857e-04 2.00233725e-04
  1.98059524e-04 1.96371278e-04 1.95087190e-04 1.94133320e-04
  1.93443893e-04 1.92961353e-04 1.92636231e-04 1.92426907e-04
  1.92299319e-04 1.92226660e-04 1.92189095e-04 1.92188860e-04]
 [2.62321627e-04 2.65265868e-04 2.71571508e-04 2.80898505e-04
  2.93066103e-04 3.07800944e-04 3.24714307e-04 3.43281170e-04
  3.62827487e-04 3.82533861e-04 4.01464480e-04 4.18628814e-04
  4.33078834e-04 4.44035958e-04 4.51030402e-04 4.54023932e-04
  4.53479991e-04 4.50347949e-04 4.45943877e-04 4.41737003e-04
  4.39081138e-04 4.38952592e-04 4.41760079e-04 4.47274495e-04
  4.54692714e-04 4.62812378e-04 4.70267437e-04 4.75765309e-04
  4.78276065e-04 4.77145253e-04 4.72125669e-04 4.63341919e-04
  4.51211304e-04 4.36345873e-04 4.19455869e-04 4.01267766e-04
  3.82463109e-04 3.63638942e-04 3.45287230e-04 3.27789116e-04
  3.11419530e-04 2.96358185e-04 2.82703798e-04 2.70489263e-04
  2.59696279e-04 2.50268568e-04 2.42123264e-04 2.35160350e-04
  2.29270241e-04 2.24339676e-04 2.20256156e-04 2.16911168e-04
  2.14202422e-04 2.12035306e-04 2.10323740e-04 2.08990577e-04
  2.07967685e-04 2.07195792e-04 2.06624209e-04 2.06210456e-04
  2.05919879e-04 2.05725273e-04 2.05606549e-04 2.05560229e-04]
 [2.31647883e-04 2.35011369e-04 2.42177254e-04 2.52850316e-04
  2.66909835e-04 2.84149788e-04 3.04243841e-04 3.26708355e-04
  3.50870754e-04 3.75853972e-04 4.00590348e-04 4.23878697e-04
  4.44493959e-04 4.61348171e-04 4.73684430e-04 4.81265461e-04
  4.84502786e-04 4.84470799e-04 4.82769811e-04 4.81242693e-04
  4.81599668e-04 4.85044998e-04 4.92008674e-04 5.02058141e-04
  5.14009358e-04 5.26195832e-04 5.36812734e-04 5.44244153e-04
  5.47302669e-04 5.45348118e-04 5.38289805e-04 5.26501970e-04
  5.10692065e-04 4.91758200e-04 4.70661718e-04 4.48328782e-04
  4.25584738e-04 4.03118357e-04 3.81469688e-04 3.61034456e-04
  3.42078589e-04 3.24757789e-04 3.09138566e-04 2.95218428e-04
  2.82943937e-04 2.72226070e-04 2.62952773e-04 2.54998887e-04
  2.48233745e-04 2.42526804e-04 2.37751683e-04 2.33788905e-04
  2.30527660e-04 2.27866815e-04 2.25715369e-04 2.23992513e-04
  2.22627425e-04 2.21558886e-04 2.20734815e-04 2.20111752e-04
  2.19654368e-04 2.19334999e-04 2.19133260e-04 2.19039093e-04]
 [1.99102573e-04 2.02809575e-04 2.10684567e-04 2.22499665e-04
  2.38222750e-04 2.57754391e-04 2.80879997e-04 3.07214075e-04
  3.36143907e-04 3.66785412e-04 3.97969708e-04 4.28282778e-04
  4.56178735e-04 4.80175577e-04 4.99118499e-04 5.12463017e-04
  5.20498771e-04 5.24422117e-04 5.26187790e-04 5.28131144e-04
  5.32435987e-04 5.40593452e-04 5.53017794e-04 5.68939166e-04
  5.86598645e-04 6.03669669e-04 6.17766347e-04 6.26894263e-04
  6.29744348e-04 6.25796961e-04 6.15261549e-04 5.98910132e-04
  5.77868518e-04 5.53416105e-04 5.26824731e-04 4.99247872e-04
  4.71658029e-04 4.44822912e-04 4.19308892e-04 3.95500978e-04
  3.73630916e-04 3.53807488e-04 3.36045366e-04 3.20290575e-04
  3.06441784e-04 2.94367392e-04 2.83918752e-04 2.74940087e-04
  2.67275671e-04 2.60774839e-04 2.55295311e-04 2.50705240e-04
  2.46884325e-04 2.43724242e-04 2.41128613e-04 2.39012655e-04
  2.37302643e-04 2.35935269e-04 2.34856957e-04 2.34023203e-04
  2.33397952e-04 2.32953052e-04 2.32667799e-04 2.32524815e-04]
 [1.65509606e-04 1.69451568e-04 1.77817683e-04 1.90469421e-04
  2.07492193e-04 2.28935701e-04 2.54754760e-04 2.84734059e-04
  3.18402336e-04 3.54949120e-04 3.93167307e-04 4.31454804e-04
  4.67912745e-04 5.00568516e-04 5.27721711e-04 5.48359924e-04
  5.62532448e-04 5.71532408e-04 5.77755970e-04 5.84197979e-04
  5.93684778e-04 6.08073953e-04 6.27694546e-04 6.51224382e-04
  6.76035138e-04 6.98863131e-04 7.16566499e-04 7.26740669e-04
  7.28057379e-04 7.20309316e-04 7.04230466e-04 6.81199019e-04
  6.52921413e-04 6.21163759e-04 5.87560637e-04 5.53503411e-04
  5.20094341e-04 4.88147134e-04 4.58215448e-04 4.30634781e-04
  4.05567738e-04 3.83046661e-04 3.63010631e-04 3.45335775e-04
  3.29859029e-04 3.16396082e-04 3.04754452e-04 2.94742677e-04
  2.86176503e-04 2.78882813e-04 2.72701900e-04 2.67488569e-04
  2.63112412e-04 2.59457541e-04 2.56421981e-04 2.53916851e-04
  2.51865457e-04 2.50202365e-04 2.48872494e-04 2.47830286e-04
  2.47038959e-04 2.46469871e-04 2.46102002e-04 2.45910082e-04]
 [1.31927190e-04 1.35963938e-04 1.44537763e-04 1.57617697e-04
  1.75431724e-04 1.98219563e-04 2.26166876e-04 2.59313471e-04
  2.97436308e-04 3.39917483e-04 3.85622538e-04 4.32833599e-04
  4.79298289e-04 5.22455904e-04 5.59870444e-04 5.89825677e-04
  6.11932752e-04 6.27511877e-04 6.39504810e-04 6.51804464e-04
  6.68129576e-04 6.90813986e-04 7.19974122e-04 7.53385522e-04
  7.87098940e-04 8.16524369e-04 8.37564797e-04 8.47439351e-04
  8.45026282e-04 8.30758921e-04 8.06233435e-04 7.73713985e-04
  7.35678334e-04 6.94479797e-04 6.52142950e-04 6.10274458e-04
  5.70055960e-04 5.32285971e-04 4.97444639e-04 4.65763739e-04
  4.37291723e-04 4.11949027e-04 3.89572317e-04 3.69948233e-04
  3.52838106e-04 3.37995376e-04 3.25177360e-04 3.14152801e-04
  3.04706359e-04 2.96640948e-04 2.89778602e-04 2.83960363e-04
  2.79045562e-04 2.74910738e-04 2.71448378e-04 2.68565597e-04
  2.66182830e-04 2.64232605e-04 2.62658413e-04 2.61413703e-04
  2.60461013e-04 2.59771248e-04 2.59323092e-04 2.59083022e-04]
 [9.96185561e-05 1.03584553e-04 1.12028611e-04 1.25037618e-04
  1.42997473e-04 1.66369607e-04 1.95627398e-04 2.31156461e-04
  2.73111298e-04 3.21229916e-04 3.74627325e-04 4.31619641e-04
  4.89667244e-04 5.45549841e-04 5.95866518e-04 6.37857522e-04
  6.70369060e-04 6.94591629e-04 7.14127684e-04 7.34114329e-04
  7.59542462e-04 7.93377317e-04 8.35290330e-04 8.81576107e-04
  9.26265776e-04 9.62904796e-04 9.86251563e-04 9.93332860e-04
  9.83678306e-04 9.58899881e-04 9.21941986e-04 8.76306124e-04
  8.25438380e-04 7.72344367e-04 7.19412087e-04 6.68385562e-04
  6.20427962e-04 5.76225346e-04 5.36098682e-04 5.00106254e-04
  4.68128689e-04 4.39935074e-04 4.15231792e-04 3.93697017e-04
  3.75004033e-04 3.58836211e-04 3.44896012e-04 3.32909818e-04
  3.22629970e-04 3.13834989e-04 3.06328688e-04 2.99938623e-04
  2.94514242e-04 2.89924904e-04 2.86057932e-04 2.82816758e-04
  2.80119216e-04 2.77896016e-04 2.76089388e-04 2.74651919e-04
  2.73545565e-04 2.72740843e-04 2.72216192e-04 2.71929710e-04]
 [6.99807729e-05 7.36975970e-05 8.16443354e-05 9.40237549e-05
  1.11378686e-04 1.34404951e-04 1.63903192e-04 2.00687314e-04
  2.45430207e-04 2.98432235e-04 3.59317140e-04 4.26701502e-04
  4.97948939e-04 5.69190466e-04 6.35816938e-04 6.93552002e-04
  7.39942878e-04 7.75725550e-04 8.05265517e-04 8.35452891e-04
  8.73145318e-04 9.22164514e-04 9.81310114e-04 1.04442095e-03
  1.10241864e-03 1.14626476e-03 1.16948769e-03 1.16942019e-03
  1.14706347e-03 1.10605142e-03 1.05133523e-03 9.88048439e-04
  9.20756640e-04 8.53094345e-04 7.87690882e-04 7.26267337e-04
  6.69808928e-04 6.18750799e-04 5.73144494e-04 5.32792368e-04
  4.97348641e-04 4.66391261e-04 4.39470485e-04 4.16140068e-04
  3.95976005e-04 3.78586762e-04 3.63617852e-04 3.50752845e-04
  3.39712212e-04 3.30250974e-04 3.22155760e-04 3.15241682e-04
  3.09349246e-04 3.04341454e-04 3.00101143e-04 2.96528613e-04
  2.93539539e-04 2.91063149e-04 2.89040675e-04 2.87424033e-04
  2.86174740e-04 2.85263028e-04 2.84667160e-04 2.84336995e-04]
 [4.44231827e-05 4.77184301e-05 5.48076821e-05 6.59919679e-05
  8.19477161e-05 1.03588251e-04 1.32047280e-04 1.68619246e-04
  2.14623842e-04 2.71156516e-04 3.38696501e-04 4.16586688e-04
  5.02493870e-04 5.92100638e-04 6.79409273e-04 7.58007937e-04
  8.23286445e-04 8.74880486e-04 9.17940817e-04 9.61865168e-04
  1.01633912e-03 1.08637721e-03 1.16911040e-03 1.25424373e-03
  1.32788137e-03 1.37750905e-03 1.39567322e-03 1.38113389e-03
  1.33779876e-03 1.27257363e-03 1.19322652e-03 1.10687335e-03
  1.01920408e-03 9.34288684e-04 8.54727614e-04 7.81949682e-04
  7.16532321e-04 6.58481638e-04 6.07451016e-04 5.62899009e-04
  5.24196555e-04 4.90695669e-04 4.61770668e-04 4.36840762e-04
  4.15380529e-04 3.96922886e-04 3.81057637e-04 3.67427645e-04
  3.55723892e-04 3.45680220e-04 3.37068174e-04 3.29692224e-04
  3.23385441e-04 3.18005684e-04 3.13432280e-04 3.09563160e-04
  3.06312423e-04 3.03608267e-04 3.01391261e-04 2.99612904e-04
  2.98234455e-04 2.97225991e-04 2.96565684e-04 2.96195584e-04]
 [2.41942825e-05 2.69253858e-05 3.28528885e-05 4.23419706e-05
  5.61540378e-05 7.53652387e-05 1.01397424e-04 1.36018858e-04
  1.81271885e-04 2.39263029e-04 3.11736701e-04 3.99374462e-04
  5.00864531e-04 6.12014810e-04 7.25505972e-04 8.32082264e-04
  9.23637089e-04 9.97453094e-04 1.05923519e-03 1.12200779e-03
  1.19989311e-03 1.29961755e-03 1.41511853e-03 1.52900858e-03
  1.61990520e-03 1.67090781e-03 1.67468669e-03 1.63372850e-03
  1.55722410e-03 1.45705464e-03 1.34462880e-03 1.22915616e-03
  1.11714286e-03 1.01262316e-03 9.17697447e-04 8.33108548e-04
  7.58730847e-04 6.93936662e-04 6.37848226e-04 5.89499293e-04
  5.47931767e-04 5.12248618e-04 4.81638878e-04 4.55385749e-04
  4.32865057e-04 4.13538690e-04 3.96945801e-04 3.82693433e-04
  3.70447461e-04 3.59924287e-04 3.50883477e-04 3.43121367e-04
  3.36465591e-04 3.30770435e-04 3.25912928e-04 3.21789567e-04
  3.18313587e-04 3.15412691e-04 3.13027184e-04 3.11108444e-04
  3.09617687e-04 3.08524989e-04 3.07808536e-04 3.07403275e-04]
 [1.01689779e-05 1.22481680e-05 1.68180203e-05 2.42605444e-05
  3.53511663e-05 5.12352044e-05 7.35158439e-05 1.04340520e-04
  1.46443674e-04 2.03064218e-04 2.77603469e-04 3.72850288e-04
  4.89649505e-04 6.25159346e-04 7.71438530e-04 9.15841817e-04
  1.04479906e-03 1.15086052e-03 1.23937427e-03 1.32862060e-03
  1.43995369e-03 1.58264218e-03 1.74441448e-03 1.89543577e-03
  2.00274334e-03 2.04470938e-03 2.01723495e-03 1.93094459e-03
  1.80396817e-03 1.65514994e-03 1.49999476e-03 1.34932016e-03
  1.20959346e-03 1.08395350e-03 9.73300505e-04 8.77187202e-04
  7.94452866e-04 7.23633483e-04 6.63206275e-04 6.11722887e-04
  5.67872769e-04 5.30505377e-04 4.98629679e-04 4.71402280e-04
  4.48110816e-04 4.28156263e-04 4.11036092e-04 3.96329115e-04
  3.83682321e-04 3.72799667e-04 3.63432686e-04 3.55372663e-04
  3.48444177e-04 3.42499769e-04 3.37415566e-04 3.33087687e-04
  3.29429298e-04 3.26368205e-04 3.23844895e-04 3.21810952e-04
  3.20227789e-04 3.19065650e-04 3.18302852e-04 3.17868230e-04]
 [2.62655769e-06 4.04095359e-06 7.20996693e-06 1.24800893e-05
  2.05584739e-05 3.25377305e-05 5.00374597e-05 7.53861853e-05
  1.11820496e-04 1.63629800e-04 2.36083837e-04 3.34845268e-04
  4.64457562e-04 6.25632342e-04 8.11844932e-04 1.00740777e-03
  1.19076333e-03 1.34534091e-03 1.47351335e-03 1.60104481e-03
  1.76158134e-03 1.96831252e-03 2.19654695e-03 2.39404298e-03
  2.51033132e-03 2.52107253e-03 2.43288704e-03 2.27243077e-03
  2.07172502e-03 1.85811467e-03 1.65047922e-03 1.45961890e-03
  1.29031173e-03 1.14349981e-03 1.01799311e-03 9.11604979e-04
  8.21831035e-04 7.46215988e-04 6.82527707e-04 6.28820851e-04
  5.83441997e-04 5.45006887e-04 5.12366802e-04 4.84573000e-04
  4.60843463e-04 4.40533689e-04 4.23111920e-04 4.08138589e-04
  3.95249475e-04 3.84142021e-04 3.74564264e-04 3.66305899e-04
  3.59191069e-04 3.53072556e-04 3.47827077e-04 3.43351498e-04
  3.39559760e-04 3.36380403e-04 3.33754565e-04 3.31634387e-04
  3.29981731e-04 3.28767192e-04 3.27969344e-04 3.27512160e-04]
 [1.07040085e-06 1.89010219e-06 3.78896929e-06 7.03264438e-06
  1.21850187e-05 2.01609500e-05 3.24007476e-05 5.11295433e-05
  7.97161971e-05 1.23112009e-04 1.88250338e-04 2.84067933e-04
  4.20436887e-04 6.04950772e-04 8.36938235e-04 1.10064327e-03
  1.36441264e-03 1.59490280e-03 1.78475946e-03 1.96971861e-03
  2.20528281e-03 2.51095455e-03 2.83615680e-03 3.08725275e-03
  3.18905920e-03 3.12385247e-03 2.92545521e-03 2.64927437e-03
  2.34622711e-03 2.05132438e-03 1.78356081e-03 1.55034695e-03
  1.35222149e-03 1.18629713e-03 1.04836879e-03 9.34046755e-04
  8.39288076e-04 7.60594143e-04 6.95039489e-04 6.40224902e-04
  5.94203542e-04 5.55403728e-04 5.22558618e-04 4.94646282e-04
  4.70840415e-04 4.50470654e-04 4.32991004e-04 4.17954868e-04
  4.04995372e-04 3.93809869e-04 3.84147715e-04 3.75800619e-04
  3.68594991e-04 3.62385871e-04 3.57052086e-04 3.52492383e-04
  3.48622331e-04 3.45371844e-04 3.42683192e-04 3.40509425e-04
  3.38813121e-04 3.37565415e-04 3.36745268e-04 3.36273274e-04]
 [4.15652037e-06 4.52493502e-06 5.44299469e-06 7.06964209e-06
  9.77953070e-06 1.42169499e-05 2.14683657e-05 3.33492759e-05
  5.28653681e-05 8.49155574e-05 1.37261233e-04 2.21587764e-04
  3.53924409e-04 5.52566036e-04 8.30475902e-04 1.18083674e-03
  1.56392687e-03 1.91795693e-03 2.20941651e-03 2.48459095e-03
  2.83980211e-03 3.30511290e-03 3.77313041e-03 4.07189936e-03
  4.09831452e-03 3.87086538e-03 3.48360191e-03 3.03727415e-03
  2.60201510e-03 2.21356906e-03 1.88359410e-03 1.61078539e-03
  1.38831919e-03 1.20790582e-03 1.06166025e-03 9.42794151e-04
  8.45744796e-04 7.66069640e-04 7.00266433e-04 6.45589148e-04
  5.99886388e-04 5.61469014e-04 5.29005516e-04 5.01440872e-04
  4.77934259e-04 4.57811416e-04 4.40528260e-04 4.25643043e-04
  4.12794971e-04 4.01687739e-04 3.92076779e-04 3.83759334e-04
  3.76566701e-04 3.70358134e-04 3.65016034e-04 3.60442131e-04
  3.56554452e-04 3.53284912e-04 3.50577389e-04 3.48386198e-04
  3.46674898e-04 3.45415358e-04 3.44587060e-04 3.44108889e-04]
 [9.79960906e-06 9.90496844e-06 1.02344328e-05 1.08416019e-05
  1.19110787e-05 1.37892323e-05 1.71176816e-05 2.30798326e-05
  3.38507375e-05 5.34015269e-05 8.88814715e-05 1.52805049e-04
  2.65919639e-04 4.59134669e-04 7.69103192e-04 1.21767420e-03
  1.77374158e-03 2.33566302e-03 2.80620730e-03 3.23180964e-03
  3.78882596e-03 4.52602401e-03 5.20202214e-03 5.49589205e-03
  5.30116983e-03 4.75362865e-03 4.06457473e-03 3.38909904e-03
  2.80100628e-03 2.31852894e-03 1.93397582e-03 1.63108640e-03
  1.39302850e-03 1.20528666e-03 1.05626446e-03 9.37022295e-04
  8.40778169e-04 7.62414477e-04 6.98066645e-04 6.44803576e-04
  6.00387711e-04 5.63097716e-04 5.31598304e-04 5.04844719e-04
  4.82012482e-04 4.62445461e-04 4.45617266e-04 4.31102349e-04
  4.18554219e-04 4.07688903e-04 3.98272298e-04 3.90110425e-04
  3.83041877e-04 3.76931929e-04 3.71667913e-04 3.67155573e-04
  3.63316185e-04 3.60084263e-04 3.57405750e-04 3.55236581e-04
  3.53541558e-04 3.52293479e-04 3.51472484e-04 3.50997562e-04]
 [1.55020280e-05 1.55366200e-05 1.56880580e-05 1.59316330e-05
  1.63076164e-05 1.69159613e-05 1.79885679e-05 2.00411501e-05
  2.41907802e-05 3.28160013e-05 5.09122966e-05 8.87973356e-05
  1.67171882e-04 3.25230756e-04 6.28414557e-04 1.15770672e-03
  1.94381827e-03 2.86102291e-03 3.67200307e-03 4.36847861e-03
  5.29262387e-03 6.52352345e-03 7.48112012e-03 7.56857594e-03
  6.82259444e-03 5.69440979e-03 4.57235627e-03 3.63113236e-03
  2.89669250e-03 2.34005754e-03 1.92124241e-03 1.60490834e-03
  1.36371511e-03 1.17759844e-03 1.03212609e-03 9.16961605e-04
  8.24673253e-04 7.49873529e-04 6.88615559e-04 6.37974143e-04
  5.95755166e-04 5.60293121e-04 5.30308964e-04 5.04809385e-04
  4.83014722e-04 4.64306832e-04 4.48191000e-04 4.34267827e-04
  4.22212275e-04 4.11757894e-04 4.02684855e-04 3.94810782e-04
  3.87983684e-04 3.82076457e-04 3.76982589e-04 3.72612780e-04
  3.68892278e-04 3.65758766e-04 3.63160690e-04 3.61055945e-04
  3.59410836e-04 3.58199285e-04 3.57402226e-04 3.56940650e-04]
 [1.88982068e-05 1.90196581e-05 1.93381692e-05 1.97921516e-05
  2.03529700e-05 2.09860134e-05 2.16660814e-05 2.24245944e-05
  2.34785997e-05 2.55651670e-05 3.07859883e-05 4.47075270e-05
  8.14736904e-05 1.75690409e-04 4.06860865e-04 9.31589126e-04
  1.95131858e-03 3.45449014e-03 4.96479337e-03 6.20095785e-03
  7.85839498e-03 1.00741496e-02 1.12809199e-02 1.05038354e-02
  8.52799539e-03 6.47268264e-03 4.85046710e-03 3.67667021e-03
  2.84806483e-03 2.26149179e-03 1.84023366e-03 1.53193410e-03
  1.30176332e-03 1.12656764e-03 9.90794990e-04 8.83837591e-04
  7.98333272e-04 7.29080411e-04 6.72338873e-04 6.25373779e-04
  5.86153258e-04 5.53145052e-04 5.25177464e-04 5.01342839e-04
  4.80929565e-04 4.63373500e-04 4.48222814e-04 4.35112218e-04
  4.23743868e-04 4.13873039e-04 4.05297300e-04 3.97848227e-04
  3.91385032e-04 3.85789613e-04 3.80962686e-04 3.76820750e-04
  3.73293689e-04 3.70322879e-04 3.67859689e-04 3.65864297e-04
  3.64304766e-04 3.63156328e-04 3.62400852e-04 3.61963249e-04]
 [1.84310196e-05 1.87436206e-05 1.94649067e-05 2.05367820e-05
  2.19397388e-05 2.36333726e-05 2.55418818e-05 2.75357653e-05
  2.94184081e-05 3.09529930e-05 3.20526929e-05 3.35364375e-05
  3.97544335e-05 6.71898274e-05 1.71744454e-04 5.27294177e-04
  1.57503576e-03 3.88234668e-03 6.90118020e-03 9.33968968e-03
  1.27650660e-02 1.70621177e-02 1.77980442e-02 1.41943542e-02
  9.80355441e-03 6.71308204e-03 4.72959089e-03 3.46604226e-03
  2.64148906e-03 2.08546487e-03 1.69774371e-03 1.41882619e-03
  1.21251409e-03 1.05613354e-03 9.35055330e-04 8.39569625e-04
  7.63059747e-04 7.00906491e-04 6.49813209e-04 6.07379436e-04
  5.71825042e-04 5.41807774e-04 5.16300060e-04 4.94504250e-04
  4.75793258e-04 4.59668340e-04 4.45728595e-04 4.33648651e-04
  4.23162117e-04 4.14049191e-04 4.06127266e-04 3.99243746e-04
  3.93270515e-04 3.88099632e-04 3.83639966e-04 3.79814558e-04
  3.76558525e-04 3.73817419e-04 3.71545915e-04 3.69706783e-04
  3.68270084e-04 3.67212546e-04 3.66517101e-04 3.66114469e-04]
 [1.40000303e-05 1.45695265e-05 1.58470680e-05 1.78075208e-05
  2.05015918e-05 2.39896957e-05 2.83305041e-05 3.35576185e-05
  3.96339250e-05 4.63663035e-05 5.32585140e-05 5.93077693e-05
  6.29585653e-05 6.36336344e-05 7.17341830e-05 1.64936605e-04
  7.48661621e-04 3.37701188e-03 9.63367488e-03 1.48079010e-02
  2.33822799e-02 3.36816748e-02 2.85941888e-02 1.63206806e-02
  9.61292625e-03 6.08862530e-03 4.15332195e-03 3.01740507e-03
  2.30663249e-03 1.83671928e-03 1.51140551e-03 1.27743626e-03
  1.10374995e-03 9.71367509e-04 8.68211464e-04 7.86318990e-04
  7.20274842e-04 6.66294657e-04 6.21669414e-04 5.84418000e-04
  5.53063700e-04 5.26486739e-04 5.03824754e-04 4.84404234e-04
  4.67692399e-04 4.53262869e-04 4.40770775e-04 4.29934483e-04
  4.20521991e-04 4.12340703e-04 4.05229643e-04 3.99053495e-04
  3.93697984e-04 3.89066282e-04 3.85076194e-04 3.81657937e-04
  3.78752389e-04 3.76309703e-04 3.74288208e-04 3.72653549e-04
  3.71378001e-04 3.70439959e-04 3.69823538e-04 3.69467066e-04]
 [7.37758159e-06 8.27930724e-06 1.02850204e-05 1.34245689e-05
  1.78673304e-05 2.38580290e-05 3.17343386e-05 4.19497501e-05
  5.50998547e-05 7.19442486e-05 9.33995010e-05 1.20434012e-04
  1.53678397e-04 1.92300077e-04 2.31700788e-04 2.62222448e-04
  3.71131309e-04 1.58145232e-03 1.41242849e-02 2.09883086e-02
  7.22241399e-02 8.53441807e-02 3.03501793e-02 1.37151864e-02
  7.52264028e-03 4.72468462e-03 3.27572520e-03 2.43551404e-03
  1.90666627e-03 1.55223105e-03 1.30289771e-03 1.12065292e-03
  9.83282914e-04 8.77107896e-04 7.93328754e-04 7.26073746e-04
  6.71299536e-04 6.26145187e-04 5.88537792e-04 5.56943680e-04
  5.30206841e-04 5.07441295e-04 4.87957736e-04 4.71212517e-04
  4.56771516e-04 4.44284126e-04 4.33464249e-04 4.24076219e-04
  4.15924267e-04 4.08844525e-04 4.02698928e-04 3.97370501e-04
  3.92759703e-04 3.88781570e-04 3.85363461e-04 3.82443295e-04
  3.79968140e-04 3.77893111e-04 3.76180484e-04 3.74799010e-04
  3.73723372e-04 3.72933769e-04 3.72415609e-04 3.72116488e-04]
 [2.68439868e-06 3.96958727e-06 6.72590120e-06 1.10749877e-05
  1.73163677e-05 2.58999687e-05 3.74821215e-05 5.30144146e-05
  7.38859038e-05 1.02155319e-04 1.40941328e-04 1.95099398e-04
  2.72457711e-04 3.86090530e-04 5.59283107e-04 8.33367861e-04
  1.29129922e-03 2.40978525e-03 2.94162228e-02 6.29626285e-02
  1.37767345e-01 1.19306628e-01 2.31298705e-02 9.82079657e-03
  5.53388546e-03 3.63305624e-03 2.61851252e-03 2.01080162e-03
  1.61648749e-03 1.34518252e-03 1.14999266e-03 1.00456763e-03
  8.93148467e-04 8.05822622e-04 7.36090111e-04 6.79537047e-04
  6.33075437e-04 5.94488536e-04 5.62148813e-04 5.34837357e-04
  5.11624974e-04 4.91791970e-04 4.74772825e-04 4.60117307e-04
  4.47462646e-04 4.36513320e-04 4.27026157e-04 4.18799226e-04
  4.11663445e-04 4.05476200e-04 4.00116422e-04 3.95480790e-04
  3.91480761e-04 3.88040241e-04 3.85093759e-04 3.82585013e-04
  3.80465730e-04 3.78694755e-04 3.77237339e-04 3.76064573e-04
  3.75152948e-04 3.74484020e-04 3.74044154e-04 3.73677643e-04]]
- channel 3: [[0.00191793 0.00254233 0.00353711 0.00464243 0.00579202 0.00696053
  0.00813638 0.00931344 0.01048822 0.01165862 0.01282351 0.01398248
  0.0151358  0.0162844  0.01742994 0.01857491 0.01972283 0.02087841
  0.02204783 0.02323914 0.02446268 0.02573166 0.0270627  0.02847619
  0.02999583 0.03164258 0.03342613 0.03523075 0.03692901 0.03816592
  0.09541252 0.13665212 0.16587772 0.14075049 0.0528667  0.02692666
  0.01446268 0.00771767 0.00521725 0.00566526 0.00713464 0.008654
  0.00997707 0.01108464 0.01200537 0.01277203 0.01341276 0.01395022
  0.01440244 0.01478377 0.01510575 0.01537769 0.01560724 0.01580067
  0.01596319 0.01609914 0.01621213 0.01630515 0.01638069 0.01644077
  0.01648702 0.0165207  0.01654272 0.01645905]
 [0.00331608 0.00368713 0.00437175 0.00521588 0.00615046 0.00713753
  0.00815506 0.00918946 0.01023196 0.01127661 0.01231924 0.01335687
  0.01438736 0.01540914 0.0164211  0.0174224  0.01841236 0.0193902
  0.02035469 0.02130355 0.02223235 0.02313248 0.02398746 0.02476564
  0.0254057  0.02578793 0.02568265 0.02476201 0.02388509 0.0300544
  0.07142938 0.09972928 0.12884973 0.12596786 0.06834807 0.03977831
  0.02448244 0.01554139 0.01045667 0.008132   0.00762319 0.00804074
  0.00883606 0.00972097 0.01056454 0.01132109 0.01198209 0.01255287
  0.01304304 0.01346283 0.01382172 0.01412809 0.01438915 0.01461104
  0.01479899 0.0149574  0.01508999 0.01519987 0.01528961 0.01536135
  0.01541678 0.01545722 0.01548363 0.0154998 ]
 [0.0051661  0.00536571 0.00577146 0.00632463 0.00698554 0.00772233
  0.00851118 0.00933459 0.01017962 0.01103643 0.01189736 0.01275616
  0.01360745 0.01444635 0.01526803 0.01606731 0.0168382  0.01757316
  0.01826213 0.01889099 0.01943921 0.01987601 0.02015443 0.02020236
  0.01991254 0.01915074 0.01790179 0.01703015 0.0202468  0.03568121
  0.06324721 0.08503133 0.09638816 0.09566165 0.07547358 0.05129895
  0.03513267 0.02453167 0.01755864 0.01307198 0.01042566 0.00914432
  0.00877955 0.00894664 0.00937673 0.00990816 0.01045412 0.01097273
  0.01144633 0.0118695  0.01224267 0.0125689  0.01285222 0.01309686
  0.01330687 0.01348595 0.01363737 0.01376397 0.0138682  0.01395206
  0.01401723 0.01406498 0.01409627 0.01411531]
 [0.00689973 0.00701922 0.00727149 0.00763065 0.00807882 0.00859803
  0.00917177 0.00978561 0.01042721 0.011086   0.01175279 0.0124193
  0.01307782 0.01372071 0.01433999 0.01492676 0.01547054 0.01595841
  0.01637372 0.01669449 0.01689121 0.01692441 0.01674329 0.01629161
  0.01554361 0.01464711 0.0143373  0.01661725 0.02457708 0.03922787
  0.0567643  0.07083022 0.07788203 0.07673144 0.06743802 0.05367215
  0.04060726 0.03059496 0.02324714 0.01796452 0.01426514 0.01180609
  0.01031803 0.00955606 0.00929446 0.0093461  0.00957407 0.00988796
  0.01023258 0.01057633 0.01090224 0.01120202 0.01147228 0.01171239
  0.01192317 0.01210616 0.01226317 0.01239603 0.0125065  0.0125961
  0.01266617 0.01271776 0.0127517  0.01277238]
 [0.00849183 0.0085657  0.00872524 0.00895671 0.00925187 0.00960129
  0.00999505 0.01042331 0.01087649 0.01134545 0.01182133 0.01229546
  0.01275906 0.01320296 0.01361715 0.01399034 0.01430929 0.01455812
  0.01471744 0.01476376 0.01466959 0.0144066  0.01395768 0.01335446
  0.01277851 0.01276839 0.01442607 0.01915316 0.02762413 0.03895947
  0.05077142 0.06011728 0.06504563 0.06480304 0.05965156 0.05131298
  0.04213646 0.03383478 0.02705215 0.02173299 0.01766583 0.01463536
  0.01245933 0.0109814  0.01005784 0.00955322 0.00934603 0.00933606
  0.00944744 0.00962665 0.00983803 0.01005885 0.01027519 0.0104789
  0.01066549 0.01083276 0.01097987 0.0111068  0.01121394 0.0113019
  0.01137132 0.01142278 0.01145679 0.01147775]
 [0.009942   0.00998621 0.01008399 0.01022693 0.0104108  0.0106304
  0.01087976 0.01115235 0.01144121 0.01173904 0.01203815 0.01233043
  0.01260715 0.01285875 0.01307461 0.01324267 0.01334916 0.01337844
  0.01331326 0.01313635 0.01283515 0.01241423 0.01192535 0.01153174
  0.01160983 0.01280746 0.01586883 0.021215   0.02863951 0.03726099
  0.04564926 0.05225173 0.05592365 0.05617687 0.05321177 0.04789008
  0.04145312 0.03500177 0.02919499 0.0242778  0.02025304 0.01703718
  0.01452644 0.01262053 0.01122649 0.01025633 0.00962566 0.0092554
  0.00907548 0.00902767 0.0090665  0.00915833 0.00927924 0.00941281
  0.00954809 0.00967798 0.00979796 0.00990531 0.00999842 0.01007646
  0.01013899 0.01018588 0.0102171  0.01023681]
 [0.01125548 0.01127859 0.01133199 0.01140997 0.01151005 0.01162901
  0.01176293 0.01190724 0.01205677 0.01220568 0.0123475  0.01247502
  0.01258018 0.01265399 0.01268641 0.01266634 0.01258184 0.01242094
  0.01217364 0.01183673 0.01142435 0.01098986 0.01066589 0.01071675
  0.01155361 0.01362717 0.01721794 0.0222951  0.02849966 0.0351655
  0.04140163 0.0462938  0.04915117 0.04965727 0.04791332 0.04439957
  0.03981982 0.03487641 0.03009338 0.02576747 0.02201651 0.01885277
  0.01624035 0.01412564 0.01245109 0.01115986 0.0101964  0.0095064
  0.00903756 0.00874124 0.00857436 0.0085007  0.00849117 0.00852339
  0.00858069 0.00865099 0.00872569 0.00879884 0.00886632 0.0089254
  0.00897423 0.00901166 0.00903693 0.00905376]
 [0.01243971 0.01244683 0.01246645 0.01249447 0.01252916 0.01256824
  0.01260883 0.01264745 0.01267999 0.01270168 0.01270704 0.01268982
  0.01264302 0.01255882 0.01242884 0.01224442 0.01199767 0.01168343
  0.01130345 0.01087467 0.01044464 0.01011696 0.01008103 0.01061664
  0.01202833 0.01452212 0.01812078 0.02265989 0.02780617 0.03307387
  0.03787854 0.04164678 0.04394194 0.04455355 0.0435287  0.0411449
  0.03782735 0.03403263 0.03014829 0.02644325 0.02306975 0.02009323
  0.01752558 0.01535045 0.01353842 0.01205514 0.0108648  0.00993141
  0.00921911 0.00869267 0.00831821 0.00806433 0.00790307 0.00781055
  0.00776716 0.00775731 0.00776896 0.007793   0.00782272 0.00785323
  0.00788102 0.00790367 0.00791958 0.00793174]
 [0.01350327 0.01349772 0.01349055 0.01347869 0.01346081 0.01343506
  0.01339913 0.01335016 0.01328474 0.01319885 0.01308787 0.01294658
  0.01276925 0.01254979 0.01228228 0.0119618  0.01158627 0.01115976
  0.01069869 0.01024262 0.00987095 0.00972173 0.00999551 0.01091631
  0.01265142 0.0152473  0.01862353 0.0225945  0.0268823  0.03112992
  0.03493822 0.037929   0.0398151  0.04045252 0.03986044 0.03820571
  0.03575616 0.03281652 0.02966847 0.02653299 0.02355942 0.02083393
  0.01839621 0.01625592 0.01440529 0.01282732 0.01150066 0.01040211
  0.00950776 0.00879344 0.00823503 0.00780881 0.00749203 0.00726356
  0.00710444 0.00699823 0.00693113 0.00689194 0.00687176 0.00686373
  0.00686268 0.00686485 0.00686764 0.00687321]
 [0.01445538 0.01443947 0.01441043 0.01436594 0.01430486 0.01422563
  0.01412628 0.01400438 0.01385705 0.01368094 0.01347228 0.01322698
  0.01294083 0.01260994 0.01223152 0.01180533 0.01133627 0.0108389
  0.01034489 0.00991427 0.00964836 0.00969484 0.01022701 0.01139078
  0.01325033 0.01577255 0.01884496 0.02229405 0.02589399 0.02937807
  0.03246396 0.03489214 0.03646671 0.03708641 0.03675694 0.03558215
  0.03373698 0.0314299  0.02886604 0.02622034 0.02362484 0.02116827
  0.018903   0.01685448 0.01503009 0.01342598 0.01203178 0.01083372
  0.00981628 0.00896321 0.0082579  0.00768362 0.00722369 0.00686179
  0.00658224 0.00637041 0.00621307 0.00609861 0.00601717 0.00596065
  0.00592261 0.00589812 0.00588367 0.00588052]
 [0.01530556 0.01528102 0.01523382 0.01516221 0.0150652  0.01494144
  0.01478926 0.01460661 0.01439112 0.01414014 0.01385085 0.01352044
  0.01314652 0.01272773 0.01226494 0.01176311 0.01123459 0.01070422
  0.01021698 0.0098471  0.00970389 0.009923   0.01063402 0.01191598
  0.01377173 0.01613465 0.01888826 0.02187937 0.02492502 0.0278221
  0.03036489 0.03236912 0.03369679 0.03427488 0.03410293 0.03324783
  0.03182755 0.02998825 0.02788075 0.02564177 0.02338274 0.02118622
  0.01910784 0.01718106 0.01542281 0.0138385  0.01242605 0.01117878
  0.01008736 0.00914112 0.0083287  0.00763846 0.00705869 0.00657768
  0.00618385 0.00586591 0.00561303 0.00541511 0.00526299 0.00514863
  0.00506526 0.00500746 0.00497116 0.0049569 ]
 [0.01606338 0.01603161 0.01596922 0.01587494 0.01574792 0.01558704
  0.01539093 0.01515797 0.01488635 0.01457422 0.01421982 0.01382183
  0.01337989 0.01289546 0.01237329 0.01182367 0.01126596 0.0107338
  0.01028149 0.00998941 0.00996224 0.01031185 0.01112529 0.01243526
  0.0142128  0.01638029 0.01882774 0.02142259 0.02401584 0.02644989
  0.02857081 0.03024385 0.03136897 0.03189233 0.03181092 0.03116934
  0.03004959 0.02855657 0.0268027  0.02489469 0.02292464 0.02096565
  0.01907138 0.01727815 0.01560811 0.01407272 0.0126758  0.01141599
  0.01028868 0.00928723 0.00840399 0.00763078 0.00695928 0.0063812
  0.00588838 0.00547284 0.00512685 0.004843   0.00461434 0.00443451
  0.00429787 0.00419971 0.00413637 0.00410819]
 [0.01673831 0.01670046 0.01662538 0.01651219 0.01636023 0.01616862
  0.01593634 0.01566225 0.01534522 0.01498427 0.01457887 0.01412932
  0.01363745 0.01310765 0.01254851 0.01197523 0.01141313 0.01090209
  0.01050096 0.01028882 0.01035771 0.01079315 0.01164839 0.01292758
  0.01458716 0.01654898 0.01871306 0.0209655  0.02318393 0.02524386
  0.02702734 0.02843326 0.02938722 0.02984874 0.02981403 0.02931388
  0.02840697 0.02717036 0.02568916 0.02404714 0.02231977 0.02057017
  0.01884763 0.01718815 0.01561613 0.01414657 0.01278723 0.01154066
  0.01040573 0.00937895 0.00845532 0.00762908 0.00689411 0.0062443
  0.00567371 0.00517674 0.00474821 0.0043834  0.00407817 0.00382896
  0.00363286 0.00348761 0.00339161 0.00334628]
 [0.01733943 0.01729653 0.01721096 0.0170822  0.01690977 0.0166931
  0.01643157 0.0161246  0.01577181 0.0153732  0.01492955 0.01444287
  0.01391723 0.01335984 0.01278284 0.01220554 0.0116576  0.01118226
  0.01083846 0.01069873 0.01083919 0.0113217  0.01217537 0.01338804
  0.01491094 0.01667003 0.01857609 0.02053138 0.02243449 0.02418544
  0.02569192 0.02687631 0.027682   0.02807802 0.02806067 0.02765195
  0.02689506 0.02584795 0.02457614 0.02314598 0.02161935 0.02005007
  0.01848221 0.01694979 0.01547751 0.01408212 0.01277383 0.01155788
  0.01043576 0.00940633 0.00846668 0.00761282 0.00684016 0.00614392
  0.00551944 0.00496243 0.00446916 0.00403671 0.00366313 0.00334765
  0.00309083 0.00289444 0.00276113 0.00269554]
 [0.0178754  0.01782838 0.01773431 0.01759297 0.01740413 0.01716754
  0.01688305 0.01655068 0.01617085 0.01574463 0.01527414 0.01476311
  0.01421773 0.01364782 0.01306845 0.01250206 0.01198079 0.01154854
  0.01126099 0.01118129 0.01136971 0.01186904 0.01269211 0.01381811
  0.01519799 0.01676373 0.01843647 0.02013224 0.02176623 0.02325696
  0.02453085 0.02552705 0.02620165 0.02653058 0.0265106  0.026158
  0.0255055  0.02459767 0.02348586 0.02222327 0.02086084 0.01944431
  0.01801252 0.01659675 0.01522091 0.01390226 0.01265238 0.01147826
  0.01038327 0.00936809 0.00843147 0.00757082 0.00678275 0.00606344
  0.00540901 0.00481584 0.00428083 0.0038018  0.00337789 0.00301003
  0.00270151 0.0024583  0.00228858 0.0022022 ]
 [0.01835427 0.01830397 0.01820322 0.01805207 0.01785054 0.01759874
  0.01729701 0.01694603 0.01654705 0.01610222 0.01561496 0.01509065
  0.01453739 0.01396721 0.01339742 0.01285238 0.01236507 0.01197787
  0.01174107 0.01170764 0.01192379 0.01241777 0.01319186 0.0142212
  0.0154589  0.01684353 0.01830576 0.01977328 0.0211746  0.02244243
  0.02351716 0.02435023 0.02490699 0.02516851 0.02513211 0.02481033
  0.02422865 0.02342214 0.02243179 0.02130081 0.0200715  0.01878279
  0.01746872 0.01615762 0.01487202 0.01362897 0.01244064 0.01131511
  0.01025707 0.00926858 0.00834973 0.00749913 0.00671444 0.00599272
  0.00533077 0.00472549 0.00417418 0.00367497 0.00322737 0.00283294
  0.00249626 0.00222573 0.00203343 0.00193328]
 [0.01878341 0.01873061 0.01862488 0.01846647 0.01825567 0.01799298
  0.01767924 0.01731579 0.01690472 0.01644921 0.01595393 0.0154257
  0.01487429 0.01431339 0.01376181 0.01324475 0.01279459 0.01245069
  0.012257   0.01225673 0.01248437 0.0129575  0.01367173 0.01460085
  0.01570126 0.01691801 0.01819031 0.01945574 0.02065359 0.02172768
  0.02262904 0.02331834 0.02376778 0.02396236 0.0239     0.02359074
  0.02305493 0.02232084 0.02142178 0.02039339 0.01927116 0.0180884
  0.01687493 0.01565626 0.01445332 0.01328252 0.01215617 0.01108293
  0.0100684  0.00911574 0.0082261  0.00739919 0.00663365 0.00592744
  0.00527813 0.00468329 0.00414076 0.00364914 0.00320823 0.00281983
  0.00248856 0.00222267 0.00203392 0.00193507]
 [0.01916944 0.01911487 0.01900573 0.01884241 0.01862549 0.01835586
  0.01803485 0.01766445 0.01724755 0.01678827 0.0162924  0.01576801
  0.01522612 0.01468161 0.01415404 0.01366849 0.01325569 0.01295114
  0.0127923  0.01281365 0.01304033 0.01348222 0.01413087 0.01496021
  0.01593035 0.01699242 0.01809316 0.01917856 0.02019675 0.02110039
  0.02184877 0.02240959 0.02276034 0.022889   0.02279412 0.02248402
  0.02197543 0.02129162 0.02046022 0.01951108 0.01847433 0.01737872
  0.01625049 0.01511259 0.01398433 0.01288132 0.01181571 0.01079646
  0.00982983 0.00891978 0.00806841 0.00727639 0.00654332 0.00586806
  0.00524905 0.00468464 0.00417333 0.00371423 0.00330739 0.00295435
  0.00265861 0.00242595 0.00226396 0.00217996]
 [0.01951822 0.01946255 0.01935144 0.01918539 0.01896524 0.01869224
  0.01836823 0.01799578 0.01757851 0.01712138 0.01663113 0.01611678
  0.01559028 0.01506714 0.01456705 0.01411421 0.01373703 0.0134668
  0.01333484 0.01336821 0.0135847  0.01398874 0.01456951 0.01530193
  0.01614983 0.01706987 0.01801541 0.01893959 0.01979784 0.02054998
  0.02116183 0.02160662 0.02186591 0.02193009 0.02179826 0.02147759
  0.02098222 0.02033172 0.01954945 0.01866085 0.01769183 0.01666748
  0.01561106 0.0145433  0.01348201 0.01244198 0.01143505 0.01047036
  0.00955461 0.00869242 0.00788671 0.00713901 0.00644981 0.00581881
  0.00524522 0.00472799 0.00426608 0.00385864 0.00350528 0.0032063
  0.00296279 0.00277671 0.00265053 0.00258612]
 [0.01983479 0.01977865 0.0196669  0.0195001  0.01927934 0.01900621
  0.01868299 0.0183128  0.01789988 0.01744988 0.01697029 0.01647082
  0.01596398 0.01546546 0.01499452 0.01457397 0.01422952 0.01398829
  0.01387604 0.01391367 0.01411336 0.01447567 0.01498854 0.01562829
  0.0163623  0.01715219 0.01795707 0.01873618 0.0194511  0.02006746
  0.02055639 0.02089549 0.0210696  0.02107102 0.0208994  0.02056115
  0.02006849 0.01943829 0.01869069 0.0178477  0.01693197 0.01596567
  0.01496962 0.01396266 0.01296133 0.01197964 0.01102915 0.01011905
  0.00925641 0.00844643 0.00769271 0.00699753 0.00636208 0.00578669
  0.00527099 0.00481409 0.00441467 0.00407109 0.00378151 0.00354401
  0.00335669 0.00321786 0.00312612 0.00307998]
 [0.02012342 0.02006738 0.0199562  0.01979046 0.01957145 0.01930109
  0.01898202 0.01861782 0.01821325 0.01777451 0.0173096  0.01682869
  0.01634447 0.01587243 0.015431   0.01504127 0.01472613 0.01450874
  0.01441004 0.0144459  0.0146242  0.01494286 0.01538927 0.01594136
  0.01656974 0.01724047 0.01791764 0.01856572 0.01915145 0.01964533
  0.0200228  0.02026505 0.02035954 0.02030019 0.02008716 0.01972635
  0.01922863 0.01860884 0.01788466 0.01707551 0.01620148 0.01528243
  0.01433722 0.01338319 0.01243578 0.0115084  0.01061233 0.00975685
  0.00894933 0.00819547 0.00749942 0.00686402 0.00629087 0.0057805
  0.00533238 0.00494502 0.00461595 0.00434189 0.00411884 0.00394241
  0.00380809 0.00371165 0.00364952 0.00361872]
 [0.0203876  0.02033216 0.02022267 0.02005961 0.01984448 0.01957944
  0.01926746 0.01891248 0.01851963 0.01809551 0.01764845 0.01718877
  0.01672908 0.01628437 0.01587194 0.01551098 0.01522161 0.01502337
  0.01493309 0.01496261 0.01511656 0.01539104 0.01577337 0.01624311
  0.01677385 0.01733551 0.01789652 0.01842586 0.01889463 0.01927745
  0.01955332 0.01970641 0.01972636 0.01960846 0.01935334 0.01896664
  0.01845822 0.01784142 0.01713208 0.01634762 0.01550617 0.01462577
  0.01372376 0.01281628 0.01191795 0.01104169 0.01019862 0.00939812
  0.00864786 0.00795391 0.00732082 0.00675164 0.00624797 0.00580988
  0.00543597 0.0051233  0.00486758 0.00466338 0.00450452 0.00438454
  0.00429723 0.00423704 0.00419952 0.0041813 ]
 [0.02063003 0.02057567 0.02046886 0.02030995 0.0201006  0.01984317
  0.01954084 0.01919783 0.01881953 0.01841275 0.01798595 0.01754941
  0.01711539 0.01669815 0.01631368 0.01597921 0.01571223 0.01552907
  0.01544311 0.01546296 0.01559082 0.01582157 0.01614278 0.01653557
  0.01697623 0.01743805 0.01789326 0.01831469 0.01867722 0.01895891
  0.01914183 0.01921261 0.01916276 0.01898873 0.01869166 0.01827702
  0.01775401 0.01713484 0.01643397 0.0156673  0.01485147 0.01400313
  0.01313848 0.01227274 0.01141994 0.01059267 0.00980201 0.00905747
  0.00836695 0.00773676 0.00717151 0.00667406 0.00624535 0.00588433
  0.00558792 0.00535118 0.00516765 0.00502984 0.00492982 0.00485988
  0.00481298 0.00478321 0.00476595 0.00475803]
 [0.02085271 0.02079984 0.02069663 0.02054321 0.02034134 0.02009352
  0.01980309 0.01947441 0.01911302 0.01872579 0.01832111 0.01790903
  0.01750128 0.01711119 0.01675339 0.01644316 0.01619554 0.01602407
  0.01593927 0.01594717 0.01604816 0.01623635 0.01649971 0.01682089
  0.01717856 0.017549   0.01790771 0.01823088 0.01849664 0.01868601
  0.01878366 0.01877836 0.01866322 0.01843572 0.0180975  0.01765399
  0.01711394 0.01648875 0.01579186 0.01503806 0.01424285 0.01342188
  0.01259046 0.01176323 0.01095379 0.0101746  0.00943674 0.00874984
  0.00812194 0.00755929 0.00706618 0.00664464 0.00629428 0.00601222
  0.00579322 0.00563011 0.0055144  0.00543702 0.00538903 0.00536221
  0.00534942 0.00534489 0.00534427 0.00534477]
 [0.02105692 0.02100594 0.02090716 0.02076042 0.02056757 0.02033115
  0.0200546  0.01974231 0.01939982 0.01903393 0.01865283 0.01826614
  0.01788492 0.01752149 0.01718902 0.01690096 0.01667016 0.0165077
  0.01642173 0.01641628 0.01649037 0.01663766 0.01684665 0.0171014
  0.01738272 0.01766951 0.01794013 0.01817371 0.01835116 0.01845611
  0.01847546 0.01839985 0.01822379 0.01794571 0.01756773 0.01709537
  0.01653708 0.01590373 0.01520802 0.01446392 0.01368612 0.01288956
  0.01208896 0.01129856 0.01053176 0.00980095 0.00911727 0.00849039
  0.00792821 0.00743655 0.00701878 0.00667548 0.00640429 0.00620003
  0.00605516 0.00596048 0.005906   0.00588177 0.00587849 0.00588803
  0.0059036  0.00591982 0.00593277 0.00594015]
 [0.02124327 0.02119454 0.02110094 0.02096201 0.02077958 0.02055621
  0.02029531 0.02000122 0.01967938 0.01933636 0.01898001 0.01861942
  0.01826485 0.01792752 0.0176192  0.0173516  0.01713556 0.01698012
  0.01689145 0.01687198 0.01691974 0.01702818 0.01718637 0.01737969
  0.01759087 0.0178011  0.01799128 0.01814308 0.01823989 0.01826758
  0.01821506 0.01807458 0.01784192 0.01751638 0.0171006  0.01660025
  0.01602365 0.01538133 0.01468548 0.01394952 0.0131876  0.01241416
  0.01164359 0.01088989 0.01016638 0.00948544 0.00885818 0.00829408
  0.00780056 0.00738245 0.00704158 0.00677648 0.00658242 0.00645183
  0.00637513 0.00634165 0.00634056 0.00636165 0.00639585 0.00643544
  0.0064742  0.00650728 0.00653121 0.00654417]
 [0.02141169 0.02136555 0.02127788 0.0211478  0.0209771  0.0207683
  0.0205247  0.02025049 0.01995087 0.01963211 0.01930157 0.0189677
  0.0186399  0.01832826 0.01804316 0.01779471 0.01759199 0.01744223
  0.01735    0.01731648 0.017339   0.01741091 0.01752192 0.01765863
  0.01780547 0.0179457  0.01806243 0.01813958 0.01816275 0.01811979
  0.01800138 0.01780123 0.0175163  0.01714671 0.01669562 0.01616892
  0.01557496 0.01492405 0.01422812 0.01350023 0.01275418 0.01200415
  0.01126434 0.01054862 0.00987029 0.00924163 0.00867353 0.00817493
  0.00775222 0.00740869 0.00714407 0.00695445 0.00683269 0.00676916
  0.00675278 0.00677208 0.00681603 0.0068747  0.00693952 0.00700344
  0.00706081 0.00710737 0.00714004 0.00715746]
 [0.0215615  0.0215183  0.02143724 0.02131703 0.02115935 0.02096659
  0.02074186 0.02048914 0.02021328 0.01992011 0.01961645 0.01930999
  0.01900922 0.01872309 0.01846066 0.01823054 0.01804025 0.01789549
  0.0177995  0.01775247 0.01775122 0.01778918 0.01785665 0.01794138
  0.01802936 0.01810566 0.01815538 0.01816448 0.01812046 0.018013
  0.01783437 0.01757963 0.01724681 0.01683684 0.01635342 0.01580276
  0.01519329 0.01453532 0.01384063 0.01312209 0.01239334 0.01166841
  0.0109614  0.01028614 0.00965577 0.00908231 0.00857606 0.00814494
  0.00779377 0.00752375 0.00733217 0.00721271 0.00715612 0.00715127
  0.00718629 0.00724954 0.0073303  0.00741921 0.0075084  0.00759148
  0.00766345 0.00772051 0.00775998 0.0077809 ]
 [0.02169138 0.02165145 0.02157772 0.02146839 0.02132501 0.02114976
  0.02094552 0.02071591 0.02046538 0.02019923 0.01992362 0.01964544
  0.01937221 0.01911177 0.0188719  0.01865983 0.01848169 0.01834187
  0.01824251 0.01818301 0.01815986 0.01816662 0.01819422 0.01823148
  0.01826577 0.01828383 0.01827255 0.01821968 0.01811451 0.01794836
  0.01771494 0.01741059 0.01703435 0.01658796 0.01607568 0.01550411
  0.01488187 0.01421936 0.01352833 0.01282162 0.01211281 0.01141585
  0.01074476 0.01011319 0.00953398 0.00901853 0.00857609 0.00821303
  0.0079321  0.00773211 0.00760794 0.00755116 0.00755102 0.00759557
  0.00767279 0.00777136 0.00788118 0.00799362 0.00810155 0.00819925
  0.00828226 0.00834724 0.00839181 0.00841537]
 [0.02179938 0.02176307 0.0216974  0.02160001 0.02147226 0.02131607
  0.02113399 0.02092924 0.02070575 0.02046822 0.02022207 0.01997333
  0.01972853 0.01949439 0.01927748 0.01908375 0.01891809 0.01878376
  0.01868198 0.01861153 0.01856869 0.01854722 0.01853866 0.01853281
  0.01851835 0.01848354 0.01841687 0.01830776 0.01814713 0.01792781
  0.01764487 0.01729586 0.0168808  0.01640223 0.01586502 0.01527618
  0.01464465 0.01398097 0.01329699 0.01260558 0.01192029 0.01125498
  0.0106235  0.01003912 0.00951404 0.0090586  0.00868052 0.00838414
  0.00816989 0.00803419 0.00796984 0.00796688 0.00801372 0.00809826
  0.00820878 0.00833461 0.00846644 0.00859641 0.00871811 0.00882642
  0.00891737 0.008988   0.0090362  0.00906165]
 [0.02188291 0.02185061 0.02179379 0.02170946 0.02159877 0.02146332
  0.02130526 0.0211273  0.0209328  0.02072576 0.02051079 0.02029304
  0.020078   0.01987129 0.01967831 0.01950383 0.01935162 0.01922395
  0.01912124 0.01904183 0.01898185 0.01893529 0.01889431 0.01884966
  0.01879122 0.01870863 0.01859189 0.01843198 0.01822129 0.0179541
  0.01762679 0.01723804 0.01678887 0.01628261 0.01572476 0.01512284
  0.0144861  0.01382533 0.0131525  0.01248053 0.01182289 0.01119327
  0.01060511 0.01007103 0.00960213 0.00920727 0.00889219 0.00865898
  0.00850575 0.00842683 0.0084135  0.00845491 0.00853927 0.00865479
  0.00879041 0.00893625 0.00908383 0.00922606 0.00935718 0.00947261
  0.00956879 0.00964309 0.00969361 0.00972029]
 [0.02193876 0.02191089 0.02186376 0.02179374 0.0217017  0.02158886
  0.02145688 0.02130792 0.02114468 0.02097037 0.02078876 0.02060403
  0.02042062 0.02024305 0.0200756  0.01992194 0.01978479 0.01966555
  0.01956399 0.01947806 0.0194038  0.01933552 0.01926596 0.01918677
  0.01908896 0.01896348 0.01880175 0.01859619 0.01834063 0.01803071
  0.01766407 0.01724051 0.01676202 0.01623275 0.01565887 0.0150484
  0.01441098 0.01375763 0.01310045 0.01245233 0.01182658 0.01123648
  0.01069478 0.01021304 0.0098009  0.00946531 0.00920986 0.00903437
  0.00893489 0.0089042  0.00893263 0.00900909 0.00912204 0.00926033
  0.00941372 0.00957319 0.00973107 0.00988098 0.01001774 0.01013724
  0.0102363  0.01031254 0.01036425 0.01039159]
 [0.02196301 0.02194006 0.02190358 0.02184927 0.02177765 0.02168953
  0.02158602 0.02146863 0.02133932 0.02120046 0.02105489 0.02090576
  0.02075648 0.02061045 0.02047082 0.02034024 0.02022045 0.02011207
  0.02001427 0.01992471 0.01983942 0.019753   0.0196588  0.01954932
  0.01941666 0.01925303 0.01905118 0.01880492 0.01850948 0.01816179
  0.01776075 0.01730726 0.01680429 0.0162568  0.01567166 0.01505738
  0.01442399 0.01378271 0.01314571 0.01252571 0.01193564 0.01138812
  0.01089486 0.010466   0.01010938 0.00982985 0.00962884 0.00950413
  0.00945021 0.00945885 0.00952    0.00962278 0.00975622 0.00991
  0.01007476 0.01024234 0.01040581 0.01055945 0.0106986  0.01081955
  0.01091944 0.01099611 0.01104804 0.01107551]
 [0.0219511  0.0219336  0.02190886 0.02187183 0.02182268 0.0217617
  0.02168941 0.02160659 0.02151437 0.02141423 0.02130798 0.02119773
  0.02108578 0.02097439 0.02086565 0.02076116 0.02066175 0.0205673
  0.02047649 0.02038669 0.02029398 0.02019326 0.02007848 0.01994299
  0.01977996 0.01958277 0.0193455  0.0190633  0.01873277 0.01835213
  0.01792149 0.01744286 0.01692019 0.01635927 0.0157676  0.01515423
  0.01452949 0.01390474 0.01329204 0.0127038  0.0121523  0.01164918
  0.01120479 0.01082758 0.0105234  0.01029503 0.01014191 0.01006022
  0.01004337 0.01008263 0.01016807 0.01028928 0.01043609 0.01059904
  0.01076967 0.01094061 0.01110565 0.01125964 0.01139837 0.01151851
  0.01161746 0.01169328 0.01174456 0.01177172]
 [0.02189772 0.02188629 0.02187451 0.02185657 0.02183221 0.02180117
  0.02176328 0.02171855 0.02166717 0.02160965 0.02154671 0.02147937
  0.02140873 0.02133594 0.02126197 0.02118738 0.02111216 0.02103545
  0.02095546 0.02086933 0.02077321 0.02066231 0.02053119 0.02037404
  0.02018504 0.01995879 0.01969064 0.01937709 0.01901605 0.01860706
  0.01815144 0.01765229 0.01711454 0.01654477 0.01595113 0.01534309
  0.01473122 0.01412687 0.01354184 0.01298795 0.01247659 0.01201813
  0.01162134 0.01129281 0.0110364  0.010853   0.01074041 0.01069369
  0.0107056  0.01076738 0.01086948 0.01100218 0.01115616 0.01132286
  0.01149465 0.01166493 0.0118281  0.01197954 0.01211545 0.01223284
  0.01232933 0.01240316 0.01245305 0.0124795 ]
 [0.02179681 0.02179217 0.02179474 0.02179795 0.02180106 0.02180318
  0.0218034  0.02180083 0.02179471 0.02178443 0.0217696  0.02175001
  0.02172557 0.02169623 0.02166181 0.02162185 0.02157545 0.02152105
  0.0214564  0.02137844 0.02128335 0.02116672 0.02102369 0.02084929
  0.02063875 0.02038782 0.02009317 0.01975263 0.01936544 0.01893246
  0.01845619 0.01794085 0.01739231 0.01681791 0.01622638 0.01562754
  0.01503203 0.01445106 0.01389592 0.01337764 0.01290646 0.01249127
  0.01213914 0.01185479 0.01164028 0.01149487 0.01141516 0.01139545
  0.01142833 0.01150526 0.01161726 0.0117554  0.01191124 0.01207704
  0.01224599 0.01241216 0.01257054 0.01271696 0.01284801 0.01296096
  0.01305368 0.01312455 0.01317242 0.01319781]
 [0.02164156 0.02164452 0.02166305 0.02168975 0.02172337 0.02176235
  0.02180493 0.02184928 0.02189355 0.02193598 0.02197492 0.02200889
  0.0220365  0.02205646 0.02206738 0.02206775 0.02205573 0.02202907
  0.02198503 0.02192034 0.02183125 0.02171368 0.0215634  0.02137628
  0.02114858 0.02087727 0.02056031 0.02019689 0.01978761 0.01933462
  0.01884166 0.01831402 0.01775847 0.01718309 0.01659705 0.01601042
  0.01543379 0.01487797 0.01435359 0.01387065 0.01343808 0.01306319
  0.01275134 0.01250552 0.01232623 0.01221147 0.012157   0.01215678
  0.01220346 0.01228894 0.01240491 0.01254325 0.01269635 0.01285731
  0.01302    0.01317913 0.01333021 0.0134695  0.01359393 0.01370103
  0.01378885 0.01385594 0.01390122 0.01392526]
 [0.02142438 0.02143585 0.02147214 0.02152501 0.02159261 0.02167266
  0.02176249 0.02185922 0.02195984 0.02206131 0.02216067 0.02225503
  0.02234165 0.02241787 0.02248105 0.02252852 0.02255748 0.02256492
  0.02254759 0.02250197 0.0224244  0.02231111 0.02215849 0.02196328
  0.0217228  0.02143526 0.02109995 0.02071744 0.02028972 0.01982027
  0.01931404 0.01877737 0.0182179  0.01764434 0.01706626 0.01649377
  0.01593726 0.015407   0.01491275 0.01446334 0.01406627 0.01372733
  0.01345024 0.01323649 0.01308531 0.0129938  0.01295724 0.01296948
  0.01302344 0.01311159 0.01322633 0.01336032 0.01350675 0.01365945
  0.01381296 0.01396255 0.01410421 0.01423457 0.01435088 0.01445089
  0.01453286 0.01459545 0.01463768 0.0146601 ]
 [0.0211369  0.02115793 0.02121401 0.02129604 0.02140155 0.02152744
  0.02167006 0.02182541 0.0219892  0.02215704 0.02232451 0.02248725
  0.02264102 0.0227817  0.02290529 0.02300786 0.02308556 0.02313452
  0.02315094 0.02313102 0.02307109 0.02296776 0.022818   0.02261945
  0.02237054 0.02207074 0.02172073 0.02132251 0.02087949 0.0203965
  0.01987969 0.01933646 0.01877524 0.01820529 0.01763643 0.01707874
  0.01654221 0.01603642 0.01557012 0.01515094 0.01478494 0.01447645
  0.01422775 0.01403911 0.0139088  0.01383331 0.01380768 0.01382589
  0.01388127 0.01396686 0.01407578 0.01420146 0.0143378  0.0144793
  0.01462111 0.01475902 0.01488943 0.01500933 0.01511624 0.01520813
  0.01528343 0.01534091 0.0153797  0.01540026]
 [0.02077005 0.0208018  0.02087994 0.02099448 0.02114228 0.02131936
  0.02152101 0.02174201 0.02197673 0.02221929 0.02246372 0.02270407
  0.02293446 0.02314918 0.0233427  0.02350975 0.02364524 0.02374438
  0.02380267 0.02381597 0.02378057 0.02369338 0.02355201 0.023355
  0.02310192 0.02279358 0.02243211 0.02202101 0.02156515 0.02107073
  0.02054514 0.01999678 0.01943483 0.01886903 0.01830933 0.01776563
  0.01724742 0.01676348 0.01632151 0.0159279  0.01558739 0.01530298
  0.01507576 0.01490502 0.01478836 0.0147219  0.01470067 0.01471889
  0.01477034 0.0148487  0.01494776 0.01506163 0.0151849  0.01531266
  0.01544061 0.01556499 0.0156826  0.01579073 0.01588715 0.01597005
  0.01603798 0.01608985 0.01612486 0.01614337]
 [0.02031412 0.02035789 0.02046059 0.02061134 0.02080627 0.02104047
  0.02130809 0.02160261 0.02191695 0.02224367 0.02257513 0.02290365
  0.02322156 0.02352142 0.023796   0.02403844 0.02424232 0.02440169
  0.02451124 0.02456635 0.0245632  0.02449895 0.02437185 0.02418135
  0.02392824 0.02361475 0.02324452 0.02282263 0.0223555  0.02185076
  0.02131703 0.02076371 0.0202007  0.01963812 0.01908598 0.0185539
  0.0180508  0.0175846  0.01716197 0.01678811 0.01646658 0.01619923
  0.01598621 0.01582608 0.01571598 0.01565189 0.01562893 0.01564167
  0.01568437 0.0157513  0.01583688 0.01593587 0.01604345 0.01615526
  0.01626748 0.01637676 0.01648023 0.01657549 0.01666051 0.01673368
  0.01679368 0.01683951 0.01687046 0.01688676]
 [0.01975895 0.01981614 0.01994612 0.02013712 0.02038449 0.02068228
  0.02102348 0.02140018 0.02180379 0.02222521 0.02265504 0.02308371
  0.02350165 0.02389943 0.02426795 0.02459854 0.02488314 0.02511446
  0.02528614 0.02539291 0.02543073 0.02539693 0.02529035 0.02511143
  0.02486223 0.02454647 0.02416944 0.02373793 0.02325999 0.02274474
  0.02220209 0.02164247 0.02107646 0.02051452 0.01996667 0.01944221
  0.01894945 0.01849547 0.01808594 0.01772501 0.01741521 0.01715745
  0.01695116 0.01679437 0.01668395 0.01661588 0.01658547 0.01658766
  0.0166172  0.01666891 0.01673779 0.01681918 0.01690877 0.01700272
  0.0170976  0.01719043 0.01727866 0.01736011 0.01743299 0.01749582
  0.01754742 0.01758687 0.01761353 0.01762748]
 [0.01909413 0.01916626 0.01932646 0.01956206 0.01986754 0.02023592
  0.02065891 0.02112718 0.02163059 0.02215833 0.02269913 0.02324145
  0.0237736  0.02428402 0.02476139 0.02519495 0.0255747  0.02589165
  0.02613813 0.02630794 0.02639663 0.02640161 0.02632227 0.02616004
  0.02591834 0.02560253 0.02521971 0.02477849 0.02428874 0.02376119
  0.02320714 0.02263806 0.02206527 0.02149956 0.02095096 0.02042844
  0.0199397  0.01949107 0.01908731 0.01873164 0.01842574 0.01816979
  0.01796265 0.01780203 0.01768466 0.01760659 0.01756339 0.01755035
  0.01756272 0.01759579 0.0176451  0.01770648 0.0177761  0.01785052
  0.01792669 0.01800195 0.01807401 0.01814092 0.01820105 0.01825306
  0.01829589 0.01832871 0.01835091 0.0183624 ]
 [0.01830942 0.0183981  0.01859164 0.01887642 0.01924603 0.01969234
  0.02020579 0.02077563 0.02139013 0.02203677 0.0227024  0.02337339
  0.02403581 0.02467566 0.02527913 0.02583296 0.02632476 0.02674343
  0.02707954 0.02732563 0.02747656 0.02752963 0.02748472 0.02734426
  0.02711318 0.02679862 0.02640969 0.0259571  0.0254527  0.02490906
  0.02433902 0.02375522 0.02316976 0.02259386 0.02203756 0.02150957
  0.02101706 0.02056564 0.02015933 0.01980055 0.01949029 0.01922816
  0.01901262 0.01884115 0.01871045 0.01861671 0.01855574 0.0185232
  0.01851473 0.01852611 0.0185533  0.01859258 0.0186405  0.018694
  0.01875033 0.01880712 0.01886228 0.01891405 0.01896097 0.01900182
  0.01903561 0.01906159 0.01907922 0.01908817]
 [0.01739519 0.01750211 0.01773224 0.01807098 0.01851091 0.01904272
  0.01965556 0.02033729 0.02107469 0.02185361 0.02265904 0.02347525
  0.02428592 0.02507435 0.02582387 0.02651818 0.02714196 0.02768138
  0.02812466 0.0284626  0.02868892 0.02880058 0.02879783 0.02868414
  0.02846604 0.02815273 0.02775566 0.02728792 0.0267637  0.02619771
  0.02560454 0.02499825 0.02439187 0.02379713 0.0232242  0.02268159
  0.02217603 0.02171255 0.0212945  0.02092368 0.02060049 0.02032411
  0.02009269 0.01990357 0.01975349 0.01963875 0.01955541 0.01949946
  0.01946689 0.01945386 0.01945673 0.01947211 0.0194969  0.01952834
  0.01956394 0.01960155 0.01963927 0.01967551 0.0197089  0.01973835
  0.01976293 0.01978197 0.01979493 0.01980129]
 [0.01634315 0.01647004 0.01674012 0.01713766 0.01765412 0.01827895
  0.01900002 0.01980393 0.02067619 0.0216012  0.0225623  0.0235417
  0.02452062 0.02547941 0.02639804 0.02725659 0.028036   0.02871887
  0.02929028 0.02973853 0.03005567 0.03023789 0.03028561 0.0302034
  0.02999959 0.02968578 0.02927616 0.02878673 0.02823453 0.0276368
  0.02701033 0.02637085 0.02573258 0.02510793 0.02450734 0.02393921
  0.02340995 0.02292408 0.02248439 0.02209215 0.02174727 0.02144858
  0.02119399 0.02098073 0.02080556 0.0206649  0.02055503 0.02047217
  0.02041263 0.02037286 0.02034954 0.02033955 0.02034009 0.0203486
  0.02036282 0.02038077 0.02040071 0.02042117 0.02044088 0.02045881
  0.02047413 0.02048617 0.02049446 0.02049821]
 [0.01514721 0.01529586 0.0156093  0.01607046 0.01666945 0.01739439
  0.01823197 0.01916779 0.0201864  0.02127123 0.02240431 0.02356606
  0.02473526 0.02588908 0.02700359 0.02805442 0.02901774 0.02987147
  0.03059635 0.03117715 0.03160339 0.03186993 0.03197712 0.03193058
  0.03174077 0.03142218 0.03099243 0.03047114 0.02987889 0.02923617
  0.02856249 0.02787569 0.02719152 0.02652328 0.02588181 0.02527554
  0.0247106  0.02419109 0.0237193  0.02329599 0.02292065 0.02259175
  0.022307   0.02206349 0.02185798 0.02168696 0.02154685 0.02143406
  0.02134511 0.02127669 0.02122569 0.02118923 0.02116469 0.02114971
  0.02114217 0.02114023 0.02114226 0.02114687 0.02115289 0.02115934
  0.02116542 0.02117051 0.02117415 0.0211753 ]
 [0.01380456 0.01397682 0.01433713 0.0148666  0.01555365 0.01638491
  0.01734604 0.01842206 0.01959723 0.02085468 0.02217585 0.02353988
  0.02492332 0.0263     0.0276415  0.02891796 0.03009943 0.03115746
  0.03206689 0.0328074  0.03336477 0.03373168 0.03390796 0.03390039
  0.03372193 0.03339077 0.03292891 0.03236069 0.03171132 0.03100545
  0.03026612 0.02951389 0.02876637 0.02803804 0.02734029 0.0266816
  0.02606787 0.02550275 0.02498802 0.02452393 0.02410951 0.02374285
  0.02342138 0.02314204 0.0229015  0.02269624 0.02252274 0.02237752
  0.02225724 0.02215871 0.02207899 0.02201534 0.02196527 0.02192654
  0.02189715 0.02187533 0.02185954 0.02184846 0.02184095 0.02183607
  0.02183306 0.02183132 0.0218304  0.02182899]
 [0.01231709 0.01251497 0.01292588 0.0135282  0.01430803 0.01525028
  0.01633981 0.01756177 0.01890113 0.0203419  0.02186602 0.02345229
  0.02507558 0.0267064  0.02831118 0.02985328 0.03129473 0.03259854
  0.03373121 0.03466515 0.03538059 0.03586679 0.03612247 0.03615558
  0.03598232 0.03562571 0.03511366 0.03447687 0.03374672 0.03295342
  0.03212455 0.0312841  0.03045204 0.02964421 0.0288726  0.02814573
  0.02746917 0.02684603 0.02627746 0.02576308 0.02530137 0.02488994
  0.02452586 0.02420579 0.02392621 0.02368352 0.02347415 0.02329464
  0.02314166 0.02301211 0.02290311 0.02281198 0.02273632 0.02267394
  0.02262291 0.02258152 0.02254825 0.02252182 0.02250111 0.02248522
  0.02247338 0.02246501 0.02245967 0.02245578]
 [0.01069289 0.01091887 0.0113847  0.0120644  0.01294057 0.01399603
  0.01521532 0.01658478 0.01809166 0.01972258 0.02146174 0.02328912
  0.02517896 0.02709878 0.02900929 0.03086548 0.03261883 0.03422058
  0.03562551 0.03679551 0.03770258 0.03833067 0.03867655 0.03874945
  0.03856991 0.03816761 0.03757872 0.03684277 0.03599962 0.03508687
  0.03413802 0.03318134 0.03223952 0.03132988 0.0304649  0.02965295
  0.02889899 0.02820536 0.02757234 0.02699873 0.02648224 0.02601987
  0.02560814 0.02524332 0.02492158 0.0246391  0.02439216 0.02417719
  0.02399083 0.02382994 0.02369163 0.02357323 0.02347235 0.02338682
  0.02331472 0.02325434 0.02320418 0.02316297 0.0231296  0.02310315
  0.02308287 0.02306817 0.02305861 0.02305235]
 [0.00894815 0.00920584 0.00973248 0.01049445 0.01146889 0.01263607
  0.01398106 0.01549318 0.01716419 0.01898583 0.02094711 0.02303157
  0.02521468 0.02746192 0.02972796 0.03195749 0.03408806 0.03605463
  0.03779516 0.03925617 0.04039741 0.04119479 0.04164178 0.04174923
  0.04154374 0.04106468 0.04036016 0.03948227 0.03848267 0.03740889
  0.03630196 0.03519524 0.03411438 0.03307801 0.03209869 0.03118413
  0.03033826 0.02956216 0.0288549  0.0282141  0.02763647 0.02711813
  0.02665488 0.02624242 0.02587645 0.02555281 0.0252675  0.02501676
  0.02479707 0.0246052  0.02443815 0.02429323 0.02416798 0.02406021
  0.02396796 0.02388951 0.02382334 0.02376816 0.02372284 0.02368645
  0.02365824 0.0236376  0.02362409 0.02361562]
 [0.0071093  0.00740516 0.00800216 0.00885242 0.00992452 0.01119607
  0.01265454 0.01429497 0.01611674 0.01812011 0.02030244 0.02265433
  0.0251556  0.02777175 0.0304517  0.03312783 0.03571922 0.03813796
  0.04029763 0.04212206 0.04355259 0.04455288 0.04511122 0.04524065
  0.04497686 0.04437383 0.04349745 0.04241817 0.04120413 0.03991607
  0.03860427 0.03730778 0.03605495 0.03486498 0.03374969 0.03271527
  0.03176382 0.03089453 0.03010468 0.02939031 0.02874674 0.02816894
  0.02765177 0.02719014 0.02677914 0.02641412 0.02609069 0.0258048
  0.02555269 0.02533093 0.0251364  0.02496628 0.02481802 0.02468936
  0.02457828 0.02448301 0.02440199 0.02433389 0.02427755 0.02423202
  0.02419652 0.02417043 0.02415329 0.02414279]
 [0.0052161  0.00556405 0.00624933 0.00719579 0.00835976 0.0097184
  0.01126555 0.01300609 0.01495104 0.01711327 0.01950306 0.02212304
  0.02496233 0.02799048 0.03115246 0.03436661 0.03752761 0.04051512
  0.04320677 0.04549226 0.04728508 0.04853015 0.04920774 0.04933426
  0.04895976 0.04816111 0.04703155 0.04566866 0.04416368 0.04259436
  0.04102177 0.03949035 0.03803    0.03665897 0.03538679 0.03421678
  0.03314804 0.03217701 0.03129847 0.03050633 0.02979412 0.02915534
  0.02858363 0.02807294 0.02761759 0.0272123  0.02685219 0.02653281
  0.0262501  0.02600037 0.02578031 0.02558694 0.02541758 0.02526986
  0.02514168 0.02503119 0.02493678 0.02485706 0.02479085 0.02473713
  0.02469512 0.02466416 0.02464379 0.02463149]
 [0.00333089 0.00376653 0.00457538 0.00562347 0.00685906 0.00826865
  0.00985997 0.01165279 0.0136738  0.01595274 0.01851804 0.02139099
  0.02457767 0.02805912 0.03178129 0.03564825 0.03952299 0.0432386
  0.0466186  0.04950038 0.05175462 0.05329737 0.05409646 0.05417412
  0.0536041  0.05250068 0.05100028 0.04924095 0.0473457  0.04541318
  0.04351537 0.04170022 0.03999639 0.03841841 0.03697109 0.03565293
  0.03445859 0.03338057 0.03241038 0.03153919 0.0307583  0.0300594
  0.02943469 0.02887697 0.02837963 0.02793665 0.02754259 0.02719252
  0.02688201 0.02660709 0.0263642  0.02615017 0.02596218 0.02579771
  0.02565458 0.02553083 0.0254248  0.02533503 0.02526028 0.02519951
  0.02515189 0.02511676 0.02509361 0.02507978]
 [0.00163042 0.00224056 0.00320305 0.0043135  0.00555572 0.00694317
  0.0085036  0.01027399 0.0122984  0.01462625 0.01730925 0.02039547
  0.02391927 0.0278862  0.03225452 0.03691828 0.04170097 0.04636812
  0.05065957 0.05433047 0.05718454 0.05909278 0.06000356 0.05994956
  0.05904582 0.05747017 0.05542881 0.05312008 0.05070902 0.04831713
  0.04602424 0.04387668 0.04189669 0.04009068 0.03845533 0.03698181
  0.03565856 0.03447293 0.03341227 0.03246441 0.03161801 0.03086267
  0.03018895 0.02958834 0.02905321 0.02857674 0.02815283 0.02777606
  0.0274416  0.02714516 0.02688291 0.02665149 0.02644789 0.02626949
  0.02611396 0.02597928 0.02586369 0.02576567 0.02568394 0.02561743
  0.02556525 0.02552671 0.0255013  0.02548625]
 [0.00116384 0.00171071 0.00256573 0.00354011 0.00463315 0.0058686
  0.00728301 0.00892349 0.0108478  0.01312461 0.01583248 0.01905521
  0.02287096 0.02733158 0.0324311  0.0380691  0.04402509 0.04996605
  0.05549807 0.06024231 0.06389569 0.0662579  0.06724546 0.06691081
  0.06544467 0.06313768 0.06031085 0.05725041 0.05417204 0.05121571
  0.04845935 0.04593746 0.04365751 0.04161159 0.03978401 0.03815576
  0.03670718 0.03541926 0.03427439 0.0332566  0.03235159 0.03154667
  0.03083062 0.03019358 0.02962683 0.02912272 0.02867451 0.02827627
  0.02792275 0.02760934 0.02733197 0.02708707 0.02687147 0.02668241
  0.02651745 0.0263745  0.02625171 0.0261475  0.02606056 0.02598975
  0.02593417 0.0258931  0.02586602 0.02585008]
 [0.00213265 0.0023765  0.00284792 0.00346983 0.00423676 0.00516715
  0.00629552 0.00767139 0.00936097 0.01144966 0.01404432 0.01727277
  0.02127604 0.02618551 0.0320761  0.03889487 0.04638857 0.0540828
  0.06136013 0.06761279 0.07236377 0.07529786 0.07627587 0.07538755
  0.07297257 0.06953093 0.06557338 0.06150648 0.05759302 0.05397204
  0.05069798 0.0477767  0.0451893  0.04290617 0.04089462 0.03912271
  0.03756104 0.03618333 0.03496648 0.03389044 0.0329378  0.03209357
  0.03134474 0.0306801  0.03008991 0.02956573 0.02910019 0.02868689
  0.02832022 0.02799528 0.02770777 0.02745393 0.02723046 0.02703447
  0.02686345 0.0267152  0.02658784 0.02647973 0.02638951 0.02631601
  0.02625832 0.02621568 0.02618756 0.02617109]
 [0.00333928 0.00342028 0.00360987 0.00390342 0.00431654 0.00487533
  0.00561936 0.00660495 0.0079095  0.00963699 0.01192507 0.0149525
  0.0189424  0.02414936 0.03080688 0.03900796 0.04853102 0.05871438
  0.06854898 0.07700601 0.08331963 0.08699048 0.08776243 0.08580358
  0.08176963 0.07656744 0.07101487 0.06565176 0.06074902 0.05639411
  0.05258165 0.04926601 0.04638877 0.04389134 0.04172019 0.03982848
  0.03817615 0.03672925 0.03545917 0.0343418  0.03335682 0.03248702
  0.03171783 0.0310368  0.03043331 0.02989823 0.0294237  0.02900291
  0.02862996 0.02829972 0.02800772 0.02775006 0.02752332 0.02732456
  0.02715116 0.0270009  0.02687184 0.02676231 0.02667092 0.02659648
  0.02653805 0.02649488 0.02646641 0.02644981]
 [0.00422335 0.00425169 0.00432662 0.00444839 0.00463062 0.00489547
  0.00527795 0.00583213 0.00663986 0.00782195 0.00955103 0.0120661
  0.01568995 0.02084468 0.02803121 0.0376904  0.04985001 0.06368346
  0.07745898 0.08929377 0.09793801 0.10259001 0.10272073 0.09865313
  0.09180834 0.08391157 0.07620557 0.06929603 0.0633225  0.05823506
  0.05392121 0.05026067 0.04714466 0.04448095 0.04219347 0.04022018
  0.03851061 0.03702366 0.03572573 0.03458923 0.03359133 0.03271309
  0.03193863 0.03125462 0.03064977 0.03011446 0.02964048 0.02922078
  0.02884926 0.02852067 0.02823042 0.02797454 0.02774958 0.02755253
  0.02738076 0.02723201 0.02710432 0.02699603 0.02690571 0.02683219
  0.0267745  0.02673188 0.02670379 0.02668747]
 [0.00467043 0.00469073 0.00474272 0.00482081 0.00492637 0.00506378
  0.00524383 0.00548991 0.00584903 0.00641049 0.00733651 0.00890669
  0.01156469 0.01595333 0.02295652 0.03367208 0.04897477 0.06827346
  0.08855187 0.1058616  0.11817017 0.12431252 0.12270196 0.11429795
  0.10253862 0.09067911 0.0803962  0.07187864 0.06491261 0.05920976
  0.05451226 0.05061216 0.0473475  0.0445932  0.04225262 0.04025053
  0.03852797 0.03703825 0.0357441  0.03461544 0.03362782 0.03276117
  0.03199891 0.0313272  0.03073443 0.03021078 0.02974792 0.0293387
  0.02897701 0.02865757 0.02837578 0.0281277  0.02790987 0.02771929
  0.02755337 0.02740985 0.02728678 0.02718251 0.02709563 0.02702495
  0.02696953 0.02692862 0.02690165 0.02688605]
 [0.00461015 0.00465384 0.00475191 0.00489297 0.00507027 0.0052754
  0.00549868 0.00573044 0.00596452 0.00620807 0.00650508 0.00698469
  0.00796121 0.01017754 0.01513353 0.02510049 0.04287252 0.07008567
  0.10200122 0.12887463 0.14763549 0.15624296 0.15009441 0.13209201
  0.11174985 0.0952497  0.0825223  0.07272585 0.06508627 0.05903291
  0.05416177 0.05018675 0.04690268 0.04416002 0.0418479  0.03988282
  0.03820089 0.03675257 0.03549891 0.03440893 0.03345772 0.03262501
  0.03189417 0.03125144 0.0306853  0.0301861  0.02974561 0.02935687
  0.02901387 0.02871146 0.02844518 0.02821116 0.02800604 0.0278269
  0.0276712  0.02753675 0.02742164 0.02732426 0.02724323 0.0271774
  0.02712584 0.0270878  0.02706275 0.0270483 ]
 [0.00400406 0.00411526 0.00435016 0.00468185 0.00509379 0.00557057
  0.00609743 0.00665813 0.00723165 0.00778771 0.00828208 0.00865851
  0.00889196 0.00917207 0.01011043 0.01341459 0.02677122 0.06125853
  0.1162629  0.16030552 0.19158705 0.21046445 0.18647204 0.14466476
  0.11540243 0.09547258 0.08144926 0.07120386 0.06347012 0.05747435
  0.05272269 0.04888781 0.04574538 0.0431372  0.04094891 0.039096
  0.03751485 0.03615668 0.03498356 0.03396552 0.03307862 0.0323035
  0.03162432 0.031028   0.03050365 0.03004211 0.02963564 0.02927763
  0.02896242 0.02868512 0.02844151 0.02822794 0.0280412  0.02787852
  0.02773749 0.02761601 0.02751226 0.02742468 0.02735196 0.027293
  0.02724688 0.02721291 0.02719056 0.02717772]
 [0.00286901 0.00315649 0.00370335 0.00440595 0.00522548 0.00614658
  0.007166   0.00828695 0.00951551 0.01085696 0.01231003 0.01385519
  0.01542859 0.01686313 0.01776104 0.01793951 0.02206899 0.03889525
  0.12949873 0.19243208 0.27995462 0.30889352 0.19755023 0.14044966
  0.10925212 0.08965714 0.07641055 0.06692623 0.05985649 0.05441791
  0.05012888 0.04667772 0.04385471 0.04151393 0.03955093 0.03788917
  0.03647128 0.03525349 0.03420183 0.03328951 0.03249514 0.03180142
  0.03119419 0.03066173 0.03019428 0.02978361 0.02942272 0.02910564
  0.02882724 0.02858307 0.02836928 0.02818249 0.02801977 0.02787855
  0.0277566  0.02765195 0.02756292 0.02748804 0.02742607 0.02737598
  0.02733691 0.02730819 0.02728932 0.02727851]
 [0.00181297 0.00238365 0.00331567 0.00440021 0.0055991  0.00691361
  0.00836194 0.00997336 0.01178789 0.01385833 0.01625445 0.01906906
  0.02242724 0.02649207 0.03148512 0.03749572 0.04470774 0.05375671
  0.18208981 0.29559719 0.39820416 0.36825408 0.18676491 0.12959535
  0.10079519 0.08296934 0.0710817  0.06262618 0.05634626 0.05152063
  0.04771377 0.04464701 0.04213444 0.04004742 0.03829425 0.03680777
  0.03553773 0.03444575 0.03350201 0.03268296 0.03196975 0.03134707
  0.03080237 0.03032523 0.02990693 0.02954008 0.02921838 0.02893645
  0.02868961 0.0284738  0.02828548 0.02812157 0.02797935 0.02785642
  0.0277507  0.02766037 0.02758382 0.02751969 0.0274668  0.02742417
  0.02739099 0.02736661 0.02735058 0.02733755]]
- channel 4: A 64×64 matrix of zeros with a single non-zero value 0.5 located at position (63, 20)
- channel 5: A 64×64 matrix representing a y-direction load distribution, with a single point load of 0.8660254 located at position (63, 19)

###Task
Based on these five input channels, compute and return the following outputs:
- C_y_hat (float): The compliance (objective value) of the optimized material layout.
- VF_y_hat (float): The volume fraction of the optimized layout you generated, calculated as the proportion of material (1's) in y_hat.

#### Constraints
- The design must minimize compliance.
- All boundary conditions and external loads must be satisfied.
- The volume fraction constraint must not be violated.
- The final outputs should be provided according to the specified field descriptions.